pair_coeff 1 2	0.000000076560096	${bac_size}	${diff_bac_cf}
pair_coeff 1 3	0.000000035575567	${bac_size}	${diff_bac_cf}
pair_coeff 1 4	0.000000021264778	${bac_size}	${diff_bac_cf}
pair_coeff 1 5	0.000000038790327	${bac_size}	${diff_bac_cf}
pair_coeff 1 6	0.000000055766908	${bac_size}	${diff_bac_cf}
pair_coeff 1 7	0.000000037831290	${bac_size}	${diff_bac_cf}
pair_coeff 1 8	0.000000024975726	${bac_size}	${diff_bac_cf}
pair_coeff 1 9	0.000000052516414	${bac_size}	${diff_bac_cf}
pair_coeff 1 10	0.000000033822398	${bac_size}	${diff_bac_cf}
pair_coeff 1 11	0.000000064294390	${bac_size}	${diff_bac_cf}
pair_coeff 1 12	0.000000051739088	${bac_size}	${diff_bac_cf}
pair_coeff 1 13	0.000000044447480	${bac_size}	${diff_bac_cf}
pair_coeff 1 14	0.000000054545875	${bac_size}	${diff_bac_cf}
pair_coeff 1 15	0.000000048414907	${bac_size}	${diff_bac_cf}
pair_coeff 1 16	0.000000050433897	${bac_size}	${diff_bac_cf}
pair_coeff 1 17	0.000000035069398	${bac_size}	${diff_bac_cf}
pair_coeff 1 18	0.000000059090495	${bac_size}	${diff_bac_cf}
pair_coeff 1 19	0.000000046939386	${bac_size}	${diff_bac_cf}
pair_coeff 1 20	0.000000046460125	${bac_size}	${diff_bac_cf}
pair_coeff 1 21	0.000000078250972	${bac_size}	${diff_bac_cf}
pair_coeff 1 22	0.000000047921745	${bac_size}	${diff_bac_cf}
pair_coeff 1 23	0.000000033403584	${bac_size}	${diff_bac_cf}
pair_coeff 1 24	0.000000039083771	${bac_size}	${diff_bac_cf}
pair_coeff 1 25	0.000000060041457	${bac_size}	${diff_bac_cf}
pair_coeff 1 26	0.000000053248982	${bac_size}	${diff_bac_cf}
pair_coeff 1 27	0.000000073522534	${bac_size}	${diff_bac_cf}
pair_coeff 1 28	0.000000041282291	${bac_size}	${diff_bac_cf}
pair_coeff 1 29	0.000000042263869	${bac_size}	${diff_bac_cf}
pair_coeff 1 30	0.000000063909855	${bac_size}	${diff_bac_cf}
pair_coeff 1 31	0.000000055847764	${bac_size}	${diff_bac_cf}
pair_coeff 1 32	0.000000048340709	${bac_size}	${diff_bac_cf}
pair_coeff 1 33	0.000000057029186	${bac_size}	${diff_bac_cf}
pair_coeff 1 34	0.000000059274378	${bac_size}	${diff_bac_cf}
pair_coeff 2 3	0.000000039800509	${bac_size}	${diff_bac_cf}
pair_coeff 2 4	0.000000065614125	${bac_size}	${diff_bac_cf}
pair_coeff 2 5	0.000000050628251	${bac_size}	${diff_bac_cf}
pair_coeff 2 6	0.000000045299496	${bac_size}	${diff_bac_cf}
pair_coeff 2 7	0.000000035353752	${bac_size}	${diff_bac_cf}
pair_coeff 2 8	0.000000034755163	${bac_size}	${diff_bac_cf}
pair_coeff 2 9	0.000000039950397	${bac_size}	${diff_bac_cf}
pair_coeff 2 10	0.000000022004015	${bac_size}	${diff_bac_cf}
pair_coeff 2 11	0.000000052649611	${bac_size}	${diff_bac_cf}
pair_coeff 2 12	0.000000034864606	${bac_size}	${diff_bac_cf}
pair_coeff 2 13	0.000000063007302	${bac_size}	${diff_bac_cf}
pair_coeff 2 14	0.000000057819314	${bac_size}	${diff_bac_cf}
pair_coeff 2 15	0.000000051275173	${bac_size}	${diff_bac_cf}
pair_coeff 2 16	0.000000048483758	${bac_size}	${diff_bac_cf}
pair_coeff 2 17	0.000000040906578	${bac_size}	${diff_bac_cf}
pair_coeff 2 18	0.000000055909072	${bac_size}	${diff_bac_cf}
pair_coeff 2 19	0.000000057843403	${bac_size}	${diff_bac_cf}
pair_coeff 2 20	0.000000055033574	${bac_size}	${diff_bac_cf}
pair_coeff 2 21	0.000000053951518	${bac_size}	${diff_bac_cf}
pair_coeff 2 22	0.000000051125275	${bac_size}	${diff_bac_cf}
pair_coeff 2 23	0.000000039141183	${bac_size}	${diff_bac_cf}
pair_coeff 2 24	0.000000068757551	${bac_size}	${diff_bac_cf}
pair_coeff 2 25	0.000000042601654	${bac_size}	${diff_bac_cf}
pair_coeff 2 26	0.000000044446652	${bac_size}	${diff_bac_cf}
pair_coeff 2 27	0.000000037473734	${bac_size}	${diff_bac_cf}
pair_coeff 2 28	0.000000045906761	${bac_size}	${diff_bac_cf}
pair_coeff 2 29	0.000000049197436	${bac_size}	${diff_bac_cf}
pair_coeff 2 30	0.000000045856933	${bac_size}	${diff_bac_cf}
pair_coeff 2 31	0.000000049834375	${bac_size}	${diff_bac_cf}
pair_coeff 2 32	0.000000058251635	${bac_size}	${diff_bac_cf}
pair_coeff 2 33	0.000000046805313	${bac_size}	${diff_bac_cf}
pair_coeff 2 34	0.000000041858317	${bac_size}	${diff_bac_cf}
pair_coeff 3 4	0.000000047364425	${bac_size}	${diff_bac_cf}
pair_coeff 3 5	0.000000049156249	${bac_size}	${diff_bac_cf}
pair_coeff 3 6	0.000000079448832	${bac_size}	${diff_bac_cf}
pair_coeff 3 7	0.000000036226945	${bac_size}	${diff_bac_cf}
pair_coeff 3 8	0.000000064691908	${bac_size}	${diff_bac_cf}
pair_coeff 3 9	0.000000049986905	${bac_size}	${diff_bac_cf}
pair_coeff 3 10	0.000000050558894	${bac_size}	${diff_bac_cf}
pair_coeff 3 11	0.000000053103663	${bac_size}	${diff_bac_cf}
pair_coeff 3 12	0.000000072011057	${bac_size}	${diff_bac_cf}
pair_coeff 3 13	0.000000067666370	${bac_size}	${diff_bac_cf}
pair_coeff 3 14	0.000000057458174	${bac_size}	${diff_bac_cf}
pair_coeff 3 15	0.000000069108274	${bac_size}	${diff_bac_cf}
pair_coeff 3 16	0.000000070165814	${bac_size}	${diff_bac_cf}
pair_coeff 3 17	0.000000046381943	${bac_size}	${diff_bac_cf}
pair_coeff 3 18	0.000000055691509	${bac_size}	${diff_bac_cf}
pair_coeff 3 19	0.000000036040458	${bac_size}	${diff_bac_cf}
pair_coeff 3 20	0.000000050020584	${bac_size}	${diff_bac_cf}
pair_coeff 3 21	0.000000030734607	${bac_size}	${diff_bac_cf}
pair_coeff 3 22	0.000000020978665	${bac_size}	${diff_bac_cf}
pair_coeff 3 23	0.000000037574346	${bac_size}	${diff_bac_cf}
pair_coeff 3 24	0.000000047469435	${bac_size}	${diff_bac_cf}
pair_coeff 3 25	0.000000055365963	${bac_size}	${diff_bac_cf}
pair_coeff 3 26	0.000000054514746	${bac_size}	${diff_bac_cf}
pair_coeff 3 27	0.000000045689741	${bac_size}	${diff_bac_cf}
pair_coeff 3 28	0.000000058217756	${bac_size}	${diff_bac_cf}
pair_coeff 3 29	0.000000040557483	${bac_size}	${diff_bac_cf}
pair_coeff 3 30	0.000000058388317	${bac_size}	${diff_bac_cf}
pair_coeff 3 31	0.000000055716074	${bac_size}	${diff_bac_cf}
pair_coeff 3 32	0.000000038715534	${bac_size}	${diff_bac_cf}
pair_coeff 3 33	0.000000067303536	${bac_size}	${diff_bac_cf}
pair_coeff 3 34	0.000000054498773	${bac_size}	${diff_bac_cf}
pair_coeff 4 5	0.000000045208301	${bac_size}	${diff_bac_cf}
pair_coeff 4 6	0.000000043364643	${bac_size}	${diff_bac_cf}
pair_coeff 4 7	0.000000060822732	${bac_size}	${diff_bac_cf}
pair_coeff 4 8	0.000000066222653	${bac_size}	${diff_bac_cf}
pair_coeff 4 9	0.000000044875012	${bac_size}	${diff_bac_cf}
pair_coeff 4 10	0.000000056218742	${bac_size}	${diff_bac_cf}
pair_coeff 4 11	0.000000041910829	${bac_size}	${diff_bac_cf}
pair_coeff 4 12	0.000000044450649	${bac_size}	${diff_bac_cf}
pair_coeff 4 13	0.000000042340520	${bac_size}	${diff_bac_cf}
pair_coeff 4 14	0.000000045466137	${bac_size}	${diff_bac_cf}
pair_coeff 4 15	0.000000021231004	${bac_size}	${diff_bac_cf}
pair_coeff 4 16	0.000000075681198	${bac_size}	${diff_bac_cf}
pair_coeff 4 17	0.000000045785201	${bac_size}	${diff_bac_cf}
pair_coeff 4 18	0.000000075365873	${bac_size}	${diff_bac_cf}
pair_coeff 4 19	0.000000046055101	${bac_size}	${diff_bac_cf}
pair_coeff 4 20	0.000000033323062	${bac_size}	${diff_bac_cf}
pair_coeff 4 21	0.000000042925814	${bac_size}	${diff_bac_cf}
pair_coeff 4 22	0.000000048111380	${bac_size}	${diff_bac_cf}
pair_coeff 4 23	0.000000048616444	${bac_size}	${diff_bac_cf}
pair_coeff 4 24	0.000000046784288	${bac_size}	${diff_bac_cf}
pair_coeff 4 25	0.000000051369834	${bac_size}	${diff_bac_cf}
pair_coeff 4 26	0.000000044183249	${bac_size}	${diff_bac_cf}
pair_coeff 4 27	0.000000071178778	${bac_size}	${diff_bac_cf}
pair_coeff 4 28	0.000000053880820	${bac_size}	${diff_bac_cf}
pair_coeff 4 29	0.000000064131091	${bac_size}	${diff_bac_cf}
pair_coeff 4 30	0.000000036153646	${bac_size}	${diff_bac_cf}
pair_coeff 4 31	0.000000033611993	${bac_size}	${diff_bac_cf}
pair_coeff 4 32	0.000000041307225	${bac_size}	${diff_bac_cf}
pair_coeff 4 33	0.000000054549261	${bac_size}	${diff_bac_cf}
pair_coeff 4 34	0.000000031686870	${bac_size}	${diff_bac_cf}
pair_coeff 5 6	0.000000050370137	${bac_size}	${diff_bac_cf}
pair_coeff 5 7	0.000000053353454	${bac_size}	${diff_bac_cf}
pair_coeff 5 8	0.000000033802325	${bac_size}	${diff_bac_cf}
pair_coeff 5 9	0.000000112876997	${bac_size}	${diff_bac_cf}
pair_coeff 5 10	0.000000056581470	${bac_size}	${diff_bac_cf}
pair_coeff 5 11	0.000000050160235	${bac_size}	${diff_bac_cf}
pair_coeff 5 12	0.000000036616559	${bac_size}	${diff_bac_cf}
pair_coeff 5 13	0.000000026701123	${bac_size}	${diff_bac_cf}
pair_coeff 5 14	0.000000061193188	${bac_size}	${diff_bac_cf}
pair_coeff 5 15	0.000000042957590	${bac_size}	${diff_bac_cf}
pair_coeff 5 16	0.000000079532447	${bac_size}	${diff_bac_cf}
pair_coeff 5 17	0.000000065616925	${bac_size}	${diff_bac_cf}
pair_coeff 5 18	0.000000058858310	${bac_size}	${diff_bac_cf}
pair_coeff 5 19	0.000000036625351	${bac_size}	${diff_bac_cf}
pair_coeff 5 20	0.000000023585554	${bac_size}	${diff_bac_cf}
pair_coeff 5 21	0.000000054517650	${bac_size}	${diff_bac_cf}
pair_coeff 5 22	0.000000022178234	${bac_size}	${diff_bac_cf}
pair_coeff 5 23	0.000000057439177	${bac_size}	${diff_bac_cf}
pair_coeff 5 24	0.000000040906939	${bac_size}	${diff_bac_cf}
pair_coeff 5 25	0.000000031849711	${bac_size}	${diff_bac_cf}
pair_coeff 5 26	0.000000047266852	${bac_size}	${diff_bac_cf}
pair_coeff 5 27	0.000000049458425	${bac_size}	${diff_bac_cf}
pair_coeff 5 28	0.000000060883393	${bac_size}	${diff_bac_cf}
pair_coeff 5 29	0.000000049102587	${bac_size}	${diff_bac_cf}
pair_coeff 5 30	0.000000039604173	${bac_size}	${diff_bac_cf}
pair_coeff 5 31	0.000000035693509	${bac_size}	${diff_bac_cf}
pair_coeff 5 32	0.000000053371060	${bac_size}	${diff_bac_cf}
pair_coeff 5 33	0.000000066084162	${bac_size}	${diff_bac_cf}
pair_coeff 5 34	0.000000038424222	${bac_size}	${diff_bac_cf}
pair_coeff 6 7	0.000000037136501	${bac_size}	${diff_bac_cf}
pair_coeff 6 8	0.000000053869097	${bac_size}	${diff_bac_cf}
pair_coeff 6 9	0.000000044094192	${bac_size}	${diff_bac_cf}
pair_coeff 6 10	0.000000052402988	${bac_size}	${diff_bac_cf}
pair_coeff 6 11	0.000000051531067	${bac_size}	${diff_bac_cf}
pair_coeff 6 12	0.000000037944829	${bac_size}	${diff_bac_cf}
pair_coeff 6 13	0.000000045007057	${bac_size}	${diff_bac_cf}
pair_coeff 6 14	0.000000045712359	${bac_size}	${diff_bac_cf}
pair_coeff 6 15	0.000000063966674	${bac_size}	${diff_bac_cf}
pair_coeff 6 16	0.000000038707612	${bac_size}	${diff_bac_cf}
pair_coeff 6 17	0.000000056829661	${bac_size}	${diff_bac_cf}
pair_coeff 6 18	0.000000031921411	${bac_size}	${diff_bac_cf}
pair_coeff 6 19	0.000000052403114	${bac_size}	${diff_bac_cf}
pair_coeff 6 20	0.000000059873495	${bac_size}	${diff_bac_cf}
pair_coeff 6 21	0.000000041519178	${bac_size}	${diff_bac_cf}
pair_coeff 6 22	0.000000072848936	${bac_size}	${diff_bac_cf}
pair_coeff 6 23	0.000000043342191	${bac_size}	${diff_bac_cf}
pair_coeff 6 24	0.000000047412896	${bac_size}	${diff_bac_cf}
pair_coeff 6 25	0.000000055131867	${bac_size}	${diff_bac_cf}
pair_coeff 6 26	0.000000058523082	${bac_size}	${diff_bac_cf}
pair_coeff 6 27	0.000000038143292	${bac_size}	${diff_bac_cf}
pair_coeff 6 28	0.000000053978148	${bac_size}	${diff_bac_cf}
pair_coeff 6 29	0.000000048406801	${bac_size}	${diff_bac_cf}
pair_coeff 6 30	0.000000020073801	${bac_size}	${diff_bac_cf}
pair_coeff 6 31	0.000000043576529	${bac_size}	${diff_bac_cf}
pair_coeff 6 32	0.000000021749363	${bac_size}	${diff_bac_cf}
pair_coeff 6 33	0.000000056066021	${bac_size}	${diff_bac_cf}
pair_coeff 6 34	0.000000044764267	${bac_size}	${diff_bac_cf}
pair_coeff 7 8	0.000000043319247	${bac_size}	${diff_bac_cf}
pair_coeff 7 9	0.000000034850735	${bac_size}	${diff_bac_cf}
pair_coeff 7 10	0.000000038293556	${bac_size}	${diff_bac_cf}
pair_coeff 7 11	0.000000048325344	${bac_size}	${diff_bac_cf}
pair_coeff 7 12	0.000000133649289	${bac_size}	${diff_bac_cf}
pair_coeff 7 13	0.000000046208160	${bac_size}	${diff_bac_cf}
pair_coeff 7 14	0.000000031546644	${bac_size}	${diff_bac_cf}
pair_coeff 7 15	0.000000052788370	${bac_size}	${diff_bac_cf}
pair_coeff 7 16	0.000000053197900	${bac_size}	${diff_bac_cf}
pair_coeff 7 17	0.000000044236326	${bac_size}	${diff_bac_cf}
pair_coeff 7 18	0.000000038384108	${bac_size}	${diff_bac_cf}
pair_coeff 7 19	0.000000037891397	${bac_size}	${diff_bac_cf}
pair_coeff 7 20	0.000000044114796	${bac_size}	${diff_bac_cf}
pair_coeff 7 21	0.000000026331255	${bac_size}	${diff_bac_cf}
pair_coeff 7 22	0.000000040631024	${bac_size}	${diff_bac_cf}
pair_coeff 7 23	0.000000021921833	${bac_size}	${diff_bac_cf}
pair_coeff 7 24	0.000000049431900	${bac_size}	${diff_bac_cf}
pair_coeff 7 25	0.000000054034668	${bac_size}	${diff_bac_cf}
pair_coeff 7 26	0.000000046197800	${bac_size}	${diff_bac_cf}
pair_coeff 7 27	0.000000046821602	${bac_size}	${diff_bac_cf}
pair_coeff 7 28	0.000000044710067	${bac_size}	${diff_bac_cf}
pair_coeff 7 29	0.000000042224767	${bac_size}	${diff_bac_cf}
pair_coeff 7 30	0.000000037448930	${bac_size}	${diff_bac_cf}
pair_coeff 7 31	0.000000056442704	${bac_size}	${diff_bac_cf}
pair_coeff 7 32	0.000000094649717	${bac_size}	${diff_bac_cf}
pair_coeff 7 33	0.000000056037446	${bac_size}	${diff_bac_cf}
pair_coeff 7 34	0.000000048119443	${bac_size}	${diff_bac_cf}
pair_coeff 8 9	0.000000043405642	${bac_size}	${diff_bac_cf}
pair_coeff 8 10	0.000000043833662	${bac_size}	${diff_bac_cf}
pair_coeff 8 11	0.000000032778668	${bac_size}	${diff_bac_cf}
pair_coeff 8 12	0.000000060971471	${bac_size}	${diff_bac_cf}
pair_coeff 8 13	0.000000048701307	${bac_size}	${diff_bac_cf}
pair_coeff 8 14	0.000000041503066	${bac_size}	${diff_bac_cf}
pair_coeff 8 15	0.000000067371182	${bac_size}	${diff_bac_cf}
pair_coeff 8 16	0.000000073200498	${bac_size}	${diff_bac_cf}
pair_coeff 8 17	0.000000038775079	${bac_size}	${diff_bac_cf}
pair_coeff 8 18	0.000000053731590	${bac_size}	${diff_bac_cf}
pair_coeff 8 19	0.000000052065169	${bac_size}	${diff_bac_cf}
pair_coeff 8 20	0.000000053763868	${bac_size}	${diff_bac_cf}
pair_coeff 8 21	0.000000040108340	${bac_size}	${diff_bac_cf}
pair_coeff 8 22	0.000000064408096	${bac_size}	${diff_bac_cf}
pair_coeff 8 23	0.000000076407452	${bac_size}	${diff_bac_cf}
pair_coeff 8 24	0.000000060947912	${bac_size}	${diff_bac_cf}
pair_coeff 8 25	0.000000053229927	${bac_size}	${diff_bac_cf}
pair_coeff 8 26	0.000000042844558	${bac_size}	${diff_bac_cf}
pair_coeff 8 27	0.000000042674730	${bac_size}	${diff_bac_cf}
pair_coeff 8 28	0.000000030855169	${bac_size}	${diff_bac_cf}
pair_coeff 8 29	0.000000047985433	${bac_size}	${diff_bac_cf}
pair_coeff 8 30	0.000000025051195	${bac_size}	${diff_bac_cf}
pair_coeff 8 31	0.000000043550200	${bac_size}	${diff_bac_cf}
pair_coeff 8 32	0.000000036555693	${bac_size}	${diff_bac_cf}
pair_coeff 8 33	0.000000043634895	${bac_size}	${diff_bac_cf}
pair_coeff 8 34	0.000000024967702	${bac_size}	${diff_bac_cf}
pair_coeff 9 10	0.000000058242686	${bac_size}	${diff_bac_cf}
pair_coeff 9 11	0.000000054223242	${bac_size}	${diff_bac_cf}
pair_coeff 9 12	0.000000037781251	${bac_size}	${diff_bac_cf}
pair_coeff 9 13	0.000000045429510	${bac_size}	${diff_bac_cf}
pair_coeff 9 14	0.000000054108148	${bac_size}	${diff_bac_cf}
pair_coeff 9 15	0.000000047959439	${bac_size}	${diff_bac_cf}
pair_coeff 9 16	0.000000066666384	${bac_size}	${diff_bac_cf}
pair_coeff 9 17	0.000000027129677	${bac_size}	${diff_bac_cf}
pair_coeff 9 18	0.000000057964278	${bac_size}	${diff_bac_cf}
pair_coeff 9 19	0.000000059181968	${bac_size}	${diff_bac_cf}
pair_coeff 9 20	0.000000034106944	${bac_size}	${diff_bac_cf}
pair_coeff 9 21	0.000000057715850	${bac_size}	${diff_bac_cf}
pair_coeff 9 22	0.000000041194407	${bac_size}	${diff_bac_cf}
pair_coeff 9 23	0.000000068807118	${bac_size}	${diff_bac_cf}
pair_coeff 9 24	0.000000057451586	${bac_size}	${diff_bac_cf}
pair_coeff 9 25	0.000000056277630	${bac_size}	${diff_bac_cf}
pair_coeff 9 26	0.000000060707600	${bac_size}	${diff_bac_cf}
pair_coeff 9 27	0.000000051159265	${bac_size}	${diff_bac_cf}
pair_coeff 9 28	0.000000062246763	${bac_size}	${diff_bac_cf}
pair_coeff 9 29	0.000000043190476	${bac_size}	${diff_bac_cf}
pair_coeff 9 30	0.000000060484615	${bac_size}	${diff_bac_cf}
pair_coeff 9 31	0.000000037981781	${bac_size}	${diff_bac_cf}
pair_coeff 9 32	0.000000043307609	${bac_size}	${diff_bac_cf}
pair_coeff 9 33	0.000000048110839	${bac_size}	${diff_bac_cf}
pair_coeff 9 34	0.000000040033572	${bac_size}	${diff_bac_cf}
pair_coeff 10 11	0.000000073012065	${bac_size}	${diff_bac_cf}
pair_coeff 10 12	0.000000051635352	${bac_size}	${diff_bac_cf}
pair_coeff 10 13	0.000000063368641	${bac_size}	${diff_bac_cf}
pair_coeff 10 14	0.000000038327621	${bac_size}	${diff_bac_cf}
pair_coeff 10 15	0.000000074386288	${bac_size}	${diff_bac_cf}
pair_coeff 10 16	0.000000051508965	${bac_size}	${diff_bac_cf}
pair_coeff 10 17	0.000000058806107	${bac_size}	${diff_bac_cf}
pair_coeff 10 18	0.000000051121804	${bac_size}	${diff_bac_cf}
pair_coeff 10 19	0.000000061842468	${bac_size}	${diff_bac_cf}
pair_coeff 10 20	0.000000037644610	${bac_size}	${diff_bac_cf}
pair_coeff 10 21	0.000000039404566	${bac_size}	${diff_bac_cf}
pair_coeff 10 22	0.000000043026267	${bac_size}	${diff_bac_cf}
pair_coeff 10 23	0.000000059351762	${bac_size}	${diff_bac_cf}
pair_coeff 10 24	0.000000086620836	${bac_size}	${diff_bac_cf}
pair_coeff 10 25	0.000000040834310	${bac_size}	${diff_bac_cf}
pair_coeff 10 26	0.000000044020760	${bac_size}	${diff_bac_cf}
pair_coeff 10 27	0.000000044610240	${bac_size}	${diff_bac_cf}
pair_coeff 10 28	0.000000051846374	${bac_size}	${diff_bac_cf}
pair_coeff 10 29	0.000000038740513	${bac_size}	${diff_bac_cf}
pair_coeff 10 30	0.000000045190348	${bac_size}	${diff_bac_cf}
pair_coeff 10 31	0.000000052085909	${bac_size}	${diff_bac_cf}
pair_coeff 10 32	0.000000036564255	${bac_size}	${diff_bac_cf}
pair_coeff 10 33	0.000000058203571	${bac_size}	${diff_bac_cf}
pair_coeff 10 34	0.000000045443636	${bac_size}	${diff_bac_cf}
pair_coeff 11 12	0.000000063837164	${bac_size}	${diff_bac_cf}
pair_coeff 11 13	0.000000047403374	${bac_size}	${diff_bac_cf}
pair_coeff 11 14	0.000000050896705	${bac_size}	${diff_bac_cf}
pair_coeff 11 15	0.000000058511974	${bac_size}	${diff_bac_cf}
pair_coeff 11 16	0.000000049369484	${bac_size}	${diff_bac_cf}
pair_coeff 11 17	0.000000056804831	${bac_size}	${diff_bac_cf}
pair_coeff 11 18	0.000000052589424	${bac_size}	${diff_bac_cf}
pair_coeff 11 19	0.000000051035059	${bac_size}	${diff_bac_cf}
pair_coeff 11 20	0.000000040802414	${bac_size}	${diff_bac_cf}
pair_coeff 11 21	0.000000071417086	${bac_size}	${diff_bac_cf}
pair_coeff 11 22	0.000000043306691	${bac_size}	${diff_bac_cf}
pair_coeff 11 23	0.000000042417417	${bac_size}	${diff_bac_cf}
pair_coeff 11 24	0.000000056383713	${bac_size}	${diff_bac_cf}
pair_coeff 11 25	0.000000049685191	${bac_size}	${diff_bac_cf}
pair_coeff 11 26	0.000000069793020	${bac_size}	${diff_bac_cf}
pair_coeff 11 27	0.000000078731604	${bac_size}	${diff_bac_cf}
pair_coeff 11 28	0.000000043477388	${bac_size}	${diff_bac_cf}
pair_coeff 11 29	0.000000050684288	${bac_size}	${diff_bac_cf}
pair_coeff 11 30	0.000000056649561	${bac_size}	${diff_bac_cf}
pair_coeff 11 31	0.000000035732074	${bac_size}	${diff_bac_cf}
pair_coeff 11 32	0.000000050889866	${bac_size}	${diff_bac_cf}
pair_coeff 11 33	0.000000037958389	${bac_size}	${diff_bac_cf}
pair_coeff 11 34	0.000000033882294	${bac_size}	${diff_bac_cf}
pair_coeff 12 13	0.000000044878216	${bac_size}	${diff_bac_cf}
pair_coeff 12 14	0.000000055425621	${bac_size}	${diff_bac_cf}
pair_coeff 12 15	0.000000065562430	${bac_size}	${diff_bac_cf}
pair_coeff 12 16	0.000000060783463	${bac_size}	${diff_bac_cf}
pair_coeff 12 17	0.000000042886170	${bac_size}	${diff_bac_cf}
pair_coeff 12 18	0.000000032857065	${bac_size}	${diff_bac_cf}
pair_coeff 12 19	0.000000059949572	${bac_size}	${diff_bac_cf}
pair_coeff 12 20	0.000000056425467	${bac_size}	${diff_bac_cf}
pair_coeff 12 21	0.000000054497289	${bac_size}	${diff_bac_cf}
pair_coeff 12 22	0.000000071131645	${bac_size}	${diff_bac_cf}
pair_coeff 12 23	0.000000036052695	${bac_size}	${diff_bac_cf}
pair_coeff 12 24	0.000000056040767	${bac_size}	${diff_bac_cf}
pair_coeff 12 25	0.000000047431621	${bac_size}	${diff_bac_cf}
pair_coeff 12 26	0.000000047966316	${bac_size}	${diff_bac_cf}
pair_coeff 12 27	0.000000067327223	${bac_size}	${diff_bac_cf}
pair_coeff 12 28	0.000000037829471	${bac_size}	${diff_bac_cf}
pair_coeff 12 29	0.000000054462957	${bac_size}	${diff_bac_cf}
pair_coeff 12 30	0.000000039245249	${bac_size}	${diff_bac_cf}
pair_coeff 12 31	0.000000031957543	${bac_size}	${diff_bac_cf}
pair_coeff 12 32	0.000000035843962	${bac_size}	${diff_bac_cf}
pair_coeff 12 33	0.000000048881267	${bac_size}	${diff_bac_cf}
pair_coeff 12 34	0.000000065215932	${bac_size}	${diff_bac_cf}
pair_coeff 13 14	0.000000040152689	${bac_size}	${diff_bac_cf}
pair_coeff 13 15	0.000000040142831	${bac_size}	${diff_bac_cf}
pair_coeff 13 16	0.000000059376691	${bac_size}	${diff_bac_cf}
pair_coeff 13 17	0.000000029893640	${bac_size}	${diff_bac_cf}
pair_coeff 13 18	0.000000024086716	${bac_size}	${diff_bac_cf}
pair_coeff 13 19	0.000000039910364	${bac_size}	${diff_bac_cf}
pair_coeff 13 20	0.000000054868106	${bac_size}	${diff_bac_cf}
pair_coeff 13 21	0.000000059870845	${bac_size}	${diff_bac_cf}
pair_coeff 13 22	0.000000085544251	${bac_size}	${diff_bac_cf}
pair_coeff 13 23	0.000000055488441	${bac_size}	${diff_bac_cf}
pair_coeff 13 24	0.000000024413144	${bac_size}	${diff_bac_cf}
pair_coeff 13 25	0.000000050696884	${bac_size}	${diff_bac_cf}
pair_coeff 13 26	0.000000050696609	${bac_size}	${diff_bac_cf}
pair_coeff 13 27	0.000000071703251	${bac_size}	${diff_bac_cf}
pair_coeff 13 28	0.000000023360885	${bac_size}	${diff_bac_cf}
pair_coeff 13 29	0.000000049406151	${bac_size}	${diff_bac_cf}
pair_coeff 13 30	0.000000038785601	${bac_size}	${diff_bac_cf}
pair_coeff 13 31	0.000000053805217	${bac_size}	${diff_bac_cf}
pair_coeff 13 32	0.000000038016352	${bac_size}	${diff_bac_cf}
pair_coeff 13 33	0.000000056592945	${bac_size}	${diff_bac_cf}
pair_coeff 13 34	0.000000037689208	${bac_size}	${diff_bac_cf}
pair_coeff 14 15	0.000000055453632	${bac_size}	${diff_bac_cf}
pair_coeff 14 16	0.000000044612361	${bac_size}	${diff_bac_cf}
pair_coeff 14 17	0.000000058863781	${bac_size}	${diff_bac_cf}
pair_coeff 14 18	0.000000040952120	${bac_size}	${diff_bac_cf}
pair_coeff 14 19	0.000000065055514	${bac_size}	${diff_bac_cf}
pair_coeff 14 20	0.000000044875608	${bac_size}	${diff_bac_cf}
pair_coeff 14 21	0.000000044671768	${bac_size}	${diff_bac_cf}
pair_coeff 14 22	0.000000039503972	${bac_size}	${diff_bac_cf}
pair_coeff 14 23	0.000000036005108	${bac_size}	${diff_bac_cf}
pair_coeff 14 24	0.000000054069992	${bac_size}	${diff_bac_cf}
pair_coeff 14 25	0.000000063541852	${bac_size}	${diff_bac_cf}
pair_coeff 14 26	0.000000061530293	${bac_size}	${diff_bac_cf}
pair_coeff 14 27	0.000000047652371	${bac_size}	${diff_bac_cf}
pair_coeff 14 28	0.000000046823224	${bac_size}	${diff_bac_cf}
pair_coeff 14 29	0.000000034483498	${bac_size}	${diff_bac_cf}
pair_coeff 14 30	0.000000046989011	${bac_size}	${diff_bac_cf}
pair_coeff 14 31	0.000000039494116	${bac_size}	${diff_bac_cf}
pair_coeff 14 32	0.000000039872285	${bac_size}	${diff_bac_cf}
pair_coeff 14 33	0.000000061145634	${bac_size}	${diff_bac_cf}
pair_coeff 14 34	0.000000038910117	${bac_size}	${diff_bac_cf}
pair_coeff 15 16	0.000000044633188	${bac_size}	${diff_bac_cf}
pair_coeff 15 17	0.000000046501305	${bac_size}	${diff_bac_cf}
pair_coeff 15 18	0.000000043342375	${bac_size}	${diff_bac_cf}
pair_coeff 15 19	0.000000048135093	${bac_size}	${diff_bac_cf}
pair_coeff 15 20	0.000000045832297	${bac_size}	${diff_bac_cf}
pair_coeff 15 21	0.000000042292740	${bac_size}	${diff_bac_cf}
pair_coeff 15 22	0.000000044233773	${bac_size}	${diff_bac_cf}
pair_coeff 15 23	0.000000119079588	${bac_size}	${diff_bac_cf}
pair_coeff 15 24	0.000000051082784	${bac_size}	${diff_bac_cf}
pair_coeff 15 25	0.000000039352032	${bac_size}	${diff_bac_cf}
pair_coeff 15 26	0.000000045966092	${bac_size}	${diff_bac_cf}
pair_coeff 15 27	0.000000045937163	${bac_size}	${diff_bac_cf}
pair_coeff 15 28	0.000000054348339	${bac_size}	${diff_bac_cf}
pair_coeff 15 29	0.000000064160267	${bac_size}	${diff_bac_cf}
pair_coeff 15 30	0.000000073745772	${bac_size}	${diff_bac_cf}
pair_coeff 15 31	0.000000051687583	${bac_size}	${diff_bac_cf}
pair_coeff 15 32	0.000000052400848	${bac_size}	${diff_bac_cf}
pair_coeff 15 33	0.000000037535357	${bac_size}	${diff_bac_cf}
pair_coeff 15 34	0.000000077552303	${bac_size}	${diff_bac_cf}
pair_coeff 16 17	0.000000043496969	${bac_size}	${diff_bac_cf}
pair_coeff 16 18	0.000000059444452	${bac_size}	${diff_bac_cf}
pair_coeff 16 19	0.000000048582889	${bac_size}	${diff_bac_cf}
pair_coeff 16 20	0.000000070046763	${bac_size}	${diff_bac_cf}
pair_coeff 16 21	0.000000065811147	${bac_size}	${diff_bac_cf}
pair_coeff 16 22	0.000000047453609	${bac_size}	${diff_bac_cf}
pair_coeff 16 23	0.000000076913622	${bac_size}	${diff_bac_cf}
pair_coeff 16 24	0.000000045390902	${bac_size}	${diff_bac_cf}
pair_coeff 16 25	0.000000041823208	${bac_size}	${diff_bac_cf}
pair_coeff 16 26	0.000000050966756	${bac_size}	${diff_bac_cf}
pair_coeff 16 27	0.000000047811565	${bac_size}	${diff_bac_cf}
pair_coeff 16 28	0.000000039722449	${bac_size}	${diff_bac_cf}
pair_coeff 16 29	0.000000055090049	${bac_size}	${diff_bac_cf}
pair_coeff 16 30	0.000000033887869	${bac_size}	${diff_bac_cf}
pair_coeff 16 31	0.000000042088984	${bac_size}	${diff_bac_cf}
pair_coeff 16 32	0.000000050466966	${bac_size}	${diff_bac_cf}
pair_coeff 16 33	0.000000062197299	${bac_size}	${diff_bac_cf}
pair_coeff 16 34	0.000000058402446	${bac_size}	${diff_bac_cf}
pair_coeff 17 18	0.000000054863295	${bac_size}	${diff_bac_cf}
pair_coeff 17 19	0.000000069220836	${bac_size}	${diff_bac_cf}
pair_coeff 17 20	0.000000064989537	${bac_size}	${diff_bac_cf}
pair_coeff 17 21	0.000000057119450	${bac_size}	${diff_bac_cf}
pair_coeff 17 22	0.000000057895600	${bac_size}	${diff_bac_cf}
pair_coeff 17 23	0.000000022731219	${bac_size}	${diff_bac_cf}
pair_coeff 17 24	0.000000042040657	${bac_size}	${diff_bac_cf}
pair_coeff 17 25	0.000000022416032	${bac_size}	${diff_bac_cf}
pair_coeff 17 26	0.000000057103687	${bac_size}	${diff_bac_cf}
pair_coeff 17 27	0.000000024129039	${bac_size}	${diff_bac_cf}
pair_coeff 17 28	0.000000034960545	${bac_size}	${diff_bac_cf}
pair_coeff 17 29	0.000000042379075	${bac_size}	${diff_bac_cf}
pair_coeff 17 30	0.000000041889515	${bac_size}	${diff_bac_cf}
pair_coeff 17 31	0.000000043349916	${bac_size}	${diff_bac_cf}
pair_coeff 17 32	0.000000041892077	${bac_size}	${diff_bac_cf}
pair_coeff 17 33	0.000000055902315	${bac_size}	${diff_bac_cf}
pair_coeff 17 34	0.000000064170467	${bac_size}	${diff_bac_cf}
pair_coeff 18 19	0.000000055487909	${bac_size}	${diff_bac_cf}
pair_coeff 18 20	0.000000084341648	${bac_size}	${diff_bac_cf}
pair_coeff 18 21	0.000000043254698	${bac_size}	${diff_bac_cf}
pair_coeff 18 22	0.000000055212336	${bac_size}	${diff_bac_cf}
pair_coeff 18 23	0.000000043070454	${bac_size}	${diff_bac_cf}
pair_coeff 18 24	0.000000039950122	${bac_size}	${diff_bac_cf}
pair_coeff 18 25	0.000000048833651	${bac_size}	${diff_bac_cf}
pair_coeff 18 26	0.000000063875738	${bac_size}	${diff_bac_cf}
pair_coeff 18 27	0.000000042603685	${bac_size}	${diff_bac_cf}
pair_coeff 18 28	0.000000062199776	${bac_size}	${diff_bac_cf}
pair_coeff 18 29	0.000000047024690	${bac_size}	${diff_bac_cf}
pair_coeff 18 30	0.000000048632510	${bac_size}	${diff_bac_cf}
pair_coeff 18 31	0.000000053188225	${bac_size}	${diff_bac_cf}
pair_coeff 18 32	0.000000047703363	${bac_size}	${diff_bac_cf}
pair_coeff 18 33	0.000000041210061	${bac_size}	${diff_bac_cf}
pair_coeff 18 34	0.000000022821608	${bac_size}	${diff_bac_cf}
pair_coeff 19 20	0.000000021089220	${bac_size}	${diff_bac_cf}
pair_coeff 19 21	0.000000051611177	${bac_size}	${diff_bac_cf}
pair_coeff 19 22	0.000000048868639	${bac_size}	${diff_bac_cf}
pair_coeff 19 23	0.000000023650387	${bac_size}	${diff_bac_cf}
pair_coeff 19 24	0.000000036362744	${bac_size}	${diff_bac_cf}
pair_coeff 19 25	0.000000046355960	${bac_size}	${diff_bac_cf}
pair_coeff 19 26	0.000000059743463	${bac_size}	${diff_bac_cf}
pair_coeff 19 27	0.000000064598369	${bac_size}	${diff_bac_cf}
pair_coeff 19 28	0.000000058152451	${bac_size}	${diff_bac_cf}
pair_coeff 19 29	0.000000044025109	${bac_size}	${diff_bac_cf}
pair_coeff 19 30	0.000000045862444	${bac_size}	${diff_bac_cf}
pair_coeff 19 31	0.000000035640343	${bac_size}	${diff_bac_cf}
pair_coeff 19 32	0.000000083506618	${bac_size}	${diff_bac_cf}
pair_coeff 19 33	0.000000037721041	${bac_size}	${diff_bac_cf}
pair_coeff 19 34	0.000000042317240	${bac_size}	${diff_bac_cf}
pair_coeff 20 21	0.000000054525683	${bac_size}	${diff_bac_cf}
pair_coeff 20 22	0.000000060430564	${bac_size}	${diff_bac_cf}
pair_coeff 20 23	0.000000040337294	${bac_size}	${diff_bac_cf}
pair_coeff 20 24	0.000000045751956	${bac_size}	${diff_bac_cf}
pair_coeff 20 25	0.000000049988688	${bac_size}	${diff_bac_cf}
pair_coeff 20 26	0.000000034364454	${bac_size}	${diff_bac_cf}
pair_coeff 20 27	0.000000023920563	${bac_size}	${diff_bac_cf}
pair_coeff 20 28	0.000000082519507	${bac_size}	${diff_bac_cf}
pair_coeff 20 29	0.000000036372491	${bac_size}	${diff_bac_cf}
pair_coeff 20 30	0.000000044232953	${bac_size}	${diff_bac_cf}
pair_coeff 20 31	0.000000054036501	${bac_size}	${diff_bac_cf}
pair_coeff 20 32	0.000000040060229	${bac_size}	${diff_bac_cf}
pair_coeff 20 33	0.000000036834545	${bac_size}	${diff_bac_cf}
pair_coeff 20 34	0.000000024800914	${bac_size}	${diff_bac_cf}
pair_coeff 21 22	0.000000072955393	${bac_size}	${diff_bac_cf}
pair_coeff 21 23	0.000000038108260	${bac_size}	${diff_bac_cf}
pair_coeff 21 24	0.000000055958023	${bac_size}	${diff_bac_cf}
pair_coeff 21 25	0.000000043790393	${bac_size}	${diff_bac_cf}
pair_coeff 21 26	0.000000063089186	${bac_size}	${diff_bac_cf}
pair_coeff 21 27	0.000000052865528	${bac_size}	${diff_bac_cf}
pair_coeff 21 28	0.000000052501354	${bac_size}	${diff_bac_cf}
pair_coeff 21 29	0.000000072325765	${bac_size}	${diff_bac_cf}
pair_coeff 21 30	0.000000023114950	${bac_size}	${diff_bac_cf}
pair_coeff 21 31	0.000000024611684	${bac_size}	${diff_bac_cf}
pair_coeff 21 32	0.000000060644970	${bac_size}	${diff_bac_cf}
pair_coeff 21 33	0.000000057286192	${bac_size}	${diff_bac_cf}
pair_coeff 21 34	0.000000043140925	${bac_size}	${diff_bac_cf}
pair_coeff 22 23	0.000000046662624	${bac_size}	${diff_bac_cf}
pair_coeff 22 24	0.000000050907987	${bac_size}	${diff_bac_cf}
pair_coeff 22 25	0.000000067735279	${bac_size}	${diff_bac_cf}
pair_coeff 22 26	0.000000052091526	${bac_size}	${diff_bac_cf}
pair_coeff 22 27	0.000000056232824	${bac_size}	${diff_bac_cf}