pair_coeff 3 4	0.000006750197646	${bac_size}	${diff_bac_cf}
pair_coeff 3 5	0.000007081233737	${bac_size}	${diff_bac_cf}
pair_coeff 3 6	0.000004548104551	${bac_size}	${diff_bac_cf}
pair_coeff 3 7	0.000004923013221	${bac_size}	${diff_bac_cf}
pair_coeff 3 8	0.000005749101440	${bac_size}	${diff_bac_cf}
pair_coeff 3 9	0.000005144694353	${bac_size}	${diff_bac_cf}
pair_coeff 3 10	0.000006627872454	${bac_size}	${diff_bac_cf}
pair_coeff 3 11	0.000005222817129	${bac_size}	${diff_bac_cf}
pair_coeff 3 12	0.000005898477449	${bac_size}	${diff_bac_cf}
pair_coeff 3 13	0.000004405821305	${bac_size}	${diff_bac_cf}
pair_coeff 3 14	0.000005769077741	${bac_size}	${diff_bac_cf}
pair_coeff 3 15	0.000005555247054	${bac_size}	${diff_bac_cf}
pair_coeff 3 16	0.000005560242858	${bac_size}	${diff_bac_cf}
pair_coeff 3 17	0.000004926367950	${bac_size}	${diff_bac_cf}
pair_coeff 3 18	0.000004764973589	${bac_size}	${diff_bac_cf}
pair_coeff 3 19	0.000004722600060	${bac_size}	${diff_bac_cf}
pair_coeff 3 20	0.000009414502515	${bac_size}	${diff_bac_cf}
pair_coeff 3 21	0.000004707557208	${bac_size}	${diff_bac_cf}
pair_coeff 3 22	0.000003253340053	${bac_size}	${diff_bac_cf}
pair_coeff 3 23	0.000005090199773	${bac_size}	${diff_bac_cf}
pair_coeff 3 24	0.000006025542716	${bac_size}	${diff_bac_cf}
pair_coeff 3 25	0.000005284778241	${bac_size}	${diff_bac_cf}
pair_coeff 3 26	0.000003906186856	${bac_size}	${diff_bac_cf}
pair_coeff 3 27	0.000004604397354	${bac_size}	${diff_bac_cf}
pair_coeff 3 28	0.000005286477422	${bac_size}	${diff_bac_cf}
pair_coeff 3 29	0.000003604295305	${bac_size}	${diff_bac_cf}
pair_coeff 3 30	0.000004385447999	${bac_size}	${diff_bac_cf}
pair_coeff 3 31	0.000004706266801	${bac_size}	${diff_bac_cf}
pair_coeff 3 32	0.000006544845790	${bac_size}	${diff_bac_cf}
pair_coeff 3 33	0.000008510517906	${bac_size}	${diff_bac_cf}
pair_coeff 3 34	0.000004836437360	${bac_size}	${diff_bac_cf}
pair_coeff 3 35	0.000005331229769	${bac_size}	${diff_bac_cf}
pair_coeff 3 36	0.000005129159148	${bac_size}	${diff_bac_cf}
pair_coeff 4 5	0.000006036694875	${bac_size}	${diff_bac_cf}
pair_coeff 4 6	0.000005600749912	${bac_size}	${diff_bac_cf}
pair_coeff 4 7	0.000004081890910	${bac_size}	${diff_bac_cf}
pair_coeff 4 8	0.000005807751236	${bac_size}	${diff_bac_cf}
pair_coeff 4 9	0.000006020006579	${bac_size}	${diff_bac_cf}
pair_coeff 4 10	0.000006138491113	${bac_size}	${diff_bac_cf}
pair_coeff 4 11	0.000004395461633	${bac_size}	${diff_bac_cf}
pair_coeff 4 12	0.000005185523965	${bac_size}	${diff_bac_cf}
pair_coeff 4 13	0.000005625811539	${bac_size}	${diff_bac_cf}
pair_coeff 4 14	0.000006734477931	${bac_size}	${diff_bac_cf}
pair_coeff 4 15	0.000005524611152	${bac_size}	${diff_bac_cf}
pair_coeff 4 16	0.000004835543817	${bac_size}	${diff_bac_cf}
pair_coeff 4 17	0.000004198051063	${bac_size}	${diff_bac_cf}
pair_coeff 4 18	0.000004566345303	${bac_size}	${diff_bac_cf}
pair_coeff 4 19	0.000005479469892	${bac_size}	${diff_bac_cf}
pair_coeff 4 20	0.000005764398185	${bac_size}	${diff_bac_cf}
pair_coeff 4 21	0.000005529913029	${bac_size}	${diff_bac_cf}
pair_coeff 4 22	0.000007033932448	${bac_size}	${diff_bac_cf}
pair_coeff 4 23	0.000005232638348	${bac_size}	${diff_bac_cf}
pair_coeff 4 24	0.000005724069157	${bac_size}	${diff_bac_cf}
pair_coeff 4 25	0.000005861298250	${bac_size}	${diff_bac_cf}
pair_coeff 4 26	0.000004910630410	${bac_size}	${diff_bac_cf}
pair_coeff 4 27	0.000004055755287	${bac_size}	${diff_bac_cf}
pair_coeff 4 28	0.000004697778864	${bac_size}	${diff_bac_cf}
pair_coeff 4 29	0.000005699493271	${bac_size}	${diff_bac_cf}
pair_coeff 4 30	0.000003708741758	${bac_size}	${diff_bac_cf}
pair_coeff 4 31	0.000003673085635	${bac_size}	${diff_bac_cf}
pair_coeff 4 32	0.000004995774274	${bac_size}	${diff_bac_cf}
pair_coeff 4 33	0.000005987483842	${bac_size}	${diff_bac_cf}
pair_coeff 4 34	0.000006242095823	${bac_size}	${diff_bac_cf}
pair_coeff 4 35	0.000004530005812	${bac_size}	${diff_bac_cf}
pair_coeff 4 36	0.000004056136496	${bac_size}	${diff_bac_cf}
pair_coeff 5 6	0.000003976409958	${bac_size}	${diff_bac_cf}
pair_coeff 5 7	0.000004227694011	${bac_size}	${diff_bac_cf}
pair_coeff 5 8	0.000005138174436	${bac_size}	${diff_bac_cf}
pair_coeff 5 9	0.000004144379951	${bac_size}	${diff_bac_cf}
pair_coeff 5 10	0.000004581340256	${bac_size}	${diff_bac_cf}
pair_coeff 5 11	0.000005522280580	${bac_size}	${diff_bac_cf}
pair_coeff 5 12	0.000005540383609	${bac_size}	${diff_bac_cf}
pair_coeff 5 13	0.000005431261082	${bac_size}	${diff_bac_cf}
pair_coeff 5 14	0.000005002802180	${bac_size}	${diff_bac_cf}
pair_coeff 5 15	0.000004379774179	${bac_size}	${diff_bac_cf}
pair_coeff 5 16	0.000005581104505	${bac_size}	${diff_bac_cf}
pair_coeff 5 17	0.000003766430281	${bac_size}	${diff_bac_cf}
pair_coeff 5 18	0.000005444272550	${bac_size}	${diff_bac_cf}
pair_coeff 5 19	0.000003798829242	${bac_size}	${diff_bac_cf}
pair_coeff 5 20	0.000004025043459	${bac_size}	${diff_bac_cf}
pair_coeff 5 21	0.000005038380976	${bac_size}	${diff_bac_cf}
pair_coeff 5 22	0.000007197600210	${bac_size}	${diff_bac_cf}
pair_coeff 5 23	0.000003501211522	${bac_size}	${diff_bac_cf}
pair_coeff 5 24	0.000005955906773	${bac_size}	${diff_bac_cf}
pair_coeff 5 25	0.000005244672249	${bac_size}	${diff_bac_cf}
pair_coeff 5 26	0.000005281241185	${bac_size}	${diff_bac_cf}
pair_coeff 5 27	0.000005723234066	${bac_size}	${diff_bac_cf}
pair_coeff 5 28	0.000004773650165	${bac_size}	${diff_bac_cf}
pair_coeff 5 29	0.000004531026682	${bac_size}	${diff_bac_cf}
pair_coeff 5 30	0.000004047517729	${bac_size}	${diff_bac_cf}
pair_coeff 5 31	0.000004622900535	${bac_size}	${diff_bac_cf}
pair_coeff 5 32	0.000004176145875	${bac_size}	${diff_bac_cf}
pair_coeff 5 33	0.000004515322160	${bac_size}	${diff_bac_cf}
pair_coeff 5 34	0.000004195471978	${bac_size}	${diff_bac_cf}
pair_coeff 5 35	0.000006464027595	${bac_size}	${diff_bac_cf}
pair_coeff 5 36	0.000004877480247	${bac_size}	${diff_bac_cf}
pair_coeff 6 7	0.000005371361660	${bac_size}	${diff_bac_cf}
pair_coeff 6 8	0.000006161557655	${bac_size}	${diff_bac_cf}
pair_coeff 6 9	0.000005869983211	${bac_size}	${diff_bac_cf}
pair_coeff 6 10	0.000004669589372	${bac_size}	${diff_bac_cf}
pair_coeff 6 11	0.000006577839667	${bac_size}	${diff_bac_cf}
pair_coeff 6 12	0.000004609815079	${bac_size}	${diff_bac_cf}
pair_coeff 6 13	0.000004302138236	${bac_size}	${diff_bac_cf}
pair_coeff 6 14	0.000004993404652	${bac_size}	${diff_bac_cf}
pair_coeff 6 15	0.000005241887297	${bac_size}	${diff_bac_cf}
pair_coeff 6 16	0.000005299306089	${bac_size}	${diff_bac_cf}
pair_coeff 6 17	0.000005063139483	${bac_size}	${diff_bac_cf}
pair_coeff 6 18	0.000004990902558	${bac_size}	${diff_bac_cf}
pair_coeff 6 19	0.000005421582866	${bac_size}	${diff_bac_cf}
pair_coeff 6 20	0.000006174009880	${bac_size}	${diff_bac_cf}
pair_coeff 6 21	0.000004426142857	${bac_size}	${diff_bac_cf}
pair_coeff 6 22	0.000003963838944	${bac_size}	${diff_bac_cf}
pair_coeff 6 23	0.000007211196959	${bac_size}	${diff_bac_cf}
pair_coeff 6 24	0.000004612290736	${bac_size}	${diff_bac_cf}
pair_coeff 6 25	0.000003759159205	${bac_size}	${diff_bac_cf}
pair_coeff 6 26	0.000006942735679	${bac_size}	${diff_bac_cf}
pair_coeff 6 27	0.000004169411048	${bac_size}	${diff_bac_cf}
pair_coeff 6 28	0.000004706416255	${bac_size}	${diff_bac_cf}
pair_coeff 6 29	0.000004540385068	${bac_size}	${diff_bac_cf}
pair_coeff 6 30	0.000005978242759	${bac_size}	${diff_bac_cf}
pair_coeff 6 31	0.000005916946576	${bac_size}	${diff_bac_cf}
pair_coeff 6 32	0.000005681360022	${bac_size}	${diff_bac_cf}
pair_coeff 6 33	0.000004194516884	${bac_size}	${diff_bac_cf}
pair_coeff 6 34	0.000008734481508	${bac_size}	${diff_bac_cf}
pair_coeff 6 35	0.000006520800348	${bac_size}	${diff_bac_cf}
pair_coeff 6 36	0.000005658800244	${bac_size}	${diff_bac_cf}
pair_coeff 7 8	0.000004773505716	${bac_size}	${diff_bac_cf}
pair_coeff 7 9	0.000004866805195	${bac_size}	${diff_bac_cf}
pair_coeff 7 10	0.000005832258807	${bac_size}	${diff_bac_cf}
pair_coeff 7 11	0.000004098299311	${bac_size}	${diff_bac_cf}
pair_coeff 7 12	0.000004453652882	${bac_size}	${diff_bac_cf}
pair_coeff 7 13	0.000003993423864	${bac_size}	${diff_bac_cf}
pair_coeff 7 14	0.000006050800876	${bac_size}	${diff_bac_cf}
pair_coeff 7 15	0.000006726794261	${bac_size}	${diff_bac_cf}
pair_coeff 7 16	0.000005581775074	${bac_size}	${diff_bac_cf}
pair_coeff 7 17	0.000004990301876	${bac_size}	${diff_bac_cf}
pair_coeff 7 18	0.000004232959978	${bac_size}	${diff_bac_cf}
pair_coeff 7 19	0.000008526916332	${bac_size}	${diff_bac_cf}
pair_coeff 7 20	0.000005479245543	${bac_size}	${diff_bac_cf}
pair_coeff 7 21	0.000007610522726	${bac_size}	${diff_bac_cf}
pair_coeff 7 22	0.000006106043915	${bac_size}	${diff_bac_cf}
pair_coeff 7 23	0.000004502916505	${bac_size}	${diff_bac_cf}
pair_coeff 7 24	0.000005729925577	${bac_size}	${diff_bac_cf}
pair_coeff 7 25	0.000004291736344	${bac_size}	${diff_bac_cf}
pair_coeff 7 26	0.000004064082017	${bac_size}	${diff_bac_cf}
pair_coeff 7 27	0.000005037319241	${bac_size}	${diff_bac_cf}
pair_coeff 7 28	0.000003361066179	${bac_size}	${diff_bac_cf}
pair_coeff 7 29	0.000012025527127	${bac_size}	${diff_bac_cf}
pair_coeff 7 30	0.000004798001872	${bac_size}	${diff_bac_cf}
pair_coeff 7 31	0.000004162178610	${bac_size}	${diff_bac_cf}
pair_coeff 7 32	0.000005193820720	${bac_size}	${diff_bac_cf}
pair_coeff 7 33	0.000005795099759	${bac_size}	${diff_bac_cf}
pair_coeff 7 34	0.000004931357664	${bac_size}	${diff_bac_cf}
pair_coeff 7 35	0.000004817007687	${bac_size}	${diff_bac_cf}
pair_coeff 7 36	0.000005965443343	${bac_size}	${diff_bac_cf}
pair_coeff 8 9	0.000005166280129	${bac_size}	${diff_bac_cf}
pair_coeff 8 10	0.000004469688717	${bac_size}	${diff_bac_cf}
pair_coeff 8 11	0.000004262151488	${bac_size}	${diff_bac_cf}
pair_coeff 8 12	0.000004518535237	${bac_size}	${diff_bac_cf}
pair_coeff 8 13	0.000008255597693	${bac_size}	${diff_bac_cf}
pair_coeff 8 14	0.000005219155296	${bac_size}	${diff_bac_cf}
pair_coeff 8 15	0.000003577581212	${bac_size}	${diff_bac_cf}
pair_coeff 8 16	0.000005696230190	${bac_size}	${diff_bac_cf}
pair_coeff 8 17	0.000006293236914	${bac_size}	${diff_bac_cf}
pair_coeff 8 18	0.000004154384025	${bac_size}	${diff_bac_cf}
pair_coeff 8 19	0.000004726042803	${bac_size}	${diff_bac_cf}
pair_coeff 8 20	0.000005076513087	${bac_size}	${diff_bac_cf}
pair_coeff 8 21	0.000003974850633	${bac_size}	${diff_bac_cf}
pair_coeff 8 22	0.000004261987192	${bac_size}	${diff_bac_cf}
pair_coeff 8 23	0.000006082522441	${bac_size}	${diff_bac_cf}
pair_coeff 8 24	0.000005146075843	${bac_size}	${diff_bac_cf}
pair_coeff 8 25	0.000004764926358	${bac_size}	${diff_bac_cf}
pair_coeff 8 26	0.000004931294599	${bac_size}	${diff_bac_cf}
pair_coeff 8 27	0.000005954507115	${bac_size}	${diff_bac_cf}
pair_coeff 8 28	0.000005439722050	${bac_size}	${diff_bac_cf}
pair_coeff 8 29	0.000005563604714	${bac_size}	${diff_bac_cf}
pair_coeff 8 30	0.000004837889110	${bac_size}	${diff_bac_cf}
pair_coeff 8 31	0.000006433948580	${bac_size}	${diff_bac_cf}
pair_coeff 8 32	0.000006517640223	${bac_size}	${diff_bac_cf}
pair_coeff 8 33	0.000006259947924	${bac_size}	${diff_bac_cf}
pair_coeff 8 34	0.000004950050633	${bac_size}	${diff_bac_cf}
pair_coeff 8 35	0.000005626509608	${bac_size}	${diff_bac_cf}
pair_coeff 8 36	0.000004857620898	${bac_size}	${diff_bac_cf}
pair_coeff 9 10	0.000004664964842	${bac_size}	${diff_bac_cf}
pair_coeff 9 11	0.000004782245825	${bac_size}	${diff_bac_cf}
pair_coeff 9 12	0.000003666891523	${bac_size}	${diff_bac_cf}
pair_coeff 9 13	0.000004915062672	${bac_size}	${diff_bac_cf}
pair_coeff 9 14	0.000005082910712	${bac_size}	${diff_bac_cf}
pair_coeff 9 15	0.000005048754635	${bac_size}	${diff_bac_cf}
pair_coeff 9 16	0.000004987705970	${bac_size}	${diff_bac_cf}
pair_coeff 9 17	0.000005645492153	${bac_size}	${diff_bac_cf}
pair_coeff 9 18	0.000004226280804	${bac_size}	${diff_bac_cf}
pair_coeff 9 19	0.000004247696014	${bac_size}	${diff_bac_cf}
pair_coeff 9 20	0.000004415507965	${bac_size}	${diff_bac_cf}
pair_coeff 9 21	0.000004835926001	${bac_size}	${diff_bac_cf}
pair_coeff 9 22	0.000004289124599	${bac_size}	${diff_bac_cf}
pair_coeff 9 23	0.000007798539717	${bac_size}	${diff_bac_cf}
pair_coeff 9 24	0.000003617228324	${bac_size}	${diff_bac_cf}
pair_coeff 9 25	0.000004340124250	${bac_size}	${diff_bac_cf}
pair_coeff 9 26	0.000005880298518	${bac_size}	${diff_bac_cf}
pair_coeff 9 27	0.000007674162729	${bac_size}	${diff_bac_cf}
pair_coeff 9 28	0.000005477699637	${bac_size}	${diff_bac_cf}
pair_coeff 9 29	0.000004108603899	${bac_size}	${diff_bac_cf}
pair_coeff 9 30	0.000004999193616	${bac_size}	${diff_bac_cf}
pair_coeff 9 31	0.000006223458807	${bac_size}	${diff_bac_cf}
pair_coeff 9 32	0.000004871123623	${bac_size}	${diff_bac_cf}
pair_coeff 9 33	0.000004792103672	${bac_size}	${diff_bac_cf}
pair_coeff 9 34	0.000004995159328	${bac_size}	${diff_bac_cf}
pair_coeff 9 35	0.000005003145892	${bac_size}	${diff_bac_cf}
pair_coeff 9 36	0.000005174230144	${bac_size}	${diff_bac_cf}
pair_coeff 10 11	0.000005324752316	${bac_size}	${diff_bac_cf}
pair_coeff 10 12	0.000004016245056	${bac_size}	${diff_bac_cf}
pair_coeff 10 13	0.000006789551802	${bac_size}	${diff_bac_cf}
pair_coeff 10 14	0.000005300607652	${bac_size}	${diff_bac_cf}
pair_coeff 10 15	0.000005158319750	${bac_size}	${diff_bac_cf}
pair_coeff 10 16	0.000004428894677	${bac_size}	${diff_bac_cf}
pair_coeff 10 17	0.000006271600740	${bac_size}	${diff_bac_cf}
pair_coeff 10 18	0.000004937800550	${bac_size}	${diff_bac_cf}
pair_coeff 10 19	0.000005374641772	${bac_size}	${diff_bac_cf}
pair_coeff 10 20	0.000007397479058	${bac_size}	${diff_bac_cf}
pair_coeff 10 21	0.000003861046614	${bac_size}	${diff_bac_cf}
pair_coeff 10 22	0.000004141452153	${bac_size}	${diff_bac_cf}
pair_coeff 10 23	0.000005947049015	${bac_size}	${diff_bac_cf}
pair_coeff 10 24	0.000005355658252	${bac_size}	${diff_bac_cf}
pair_coeff 10 25	0.000005638828709	${bac_size}	${diff_bac_cf}
pair_coeff 10 26	0.000006471124919	${bac_size}	${diff_bac_cf}
pair_coeff 10 27	0.000004218933622	${bac_size}	${diff_bac_cf}
pair_coeff 10 28	0.000005731295305	${bac_size}	${diff_bac_cf}
pair_coeff 10 29	0.000004163128608	${bac_size}	${diff_bac_cf}
pair_coeff 10 30	0.000005374991722	${bac_size}	${diff_bac_cf}
pair_coeff 10 31	0.000004417724480	${bac_size}	${diff_bac_cf}
pair_coeff 10 32	0.000003623957600	${bac_size}	${diff_bac_cf}
pair_coeff 10 33	0.000004775310536	${bac_size}	${diff_bac_cf}
pair_coeff 10 34	0.000004442390426	${bac_size}	${diff_bac_cf}
pair_coeff 10 35	0.000005895852654	${bac_size}	${diff_bac_cf}
pair_coeff 10 36	0.000004378640188	${bac_size}	${diff_bac_cf}
pair_coeff 11 12	0.000005159595464	${bac_size}	${diff_bac_cf}
pair_coeff 11 13	0.000006456869963	${bac_size}	${diff_bac_cf}
pair_coeff 11 14	0.000005536967398	${bac_size}	${diff_bac_cf}
pair_coeff 11 15	0.000004689060570	${bac_size}	${diff_bac_cf}
pair_coeff 11 16	0.000004760018357	${bac_size}	${diff_bac_cf}
pair_coeff 11 17	0.000005965738300	${bac_size}	${diff_bac_cf}
pair_coeff 11 18	0.000005929602574	${bac_size}	${diff_bac_cf}
pair_coeff 11 19	0.000004604942384	${bac_size}	${diff_bac_cf}
pair_coeff 11 20	0.000004262535463	${bac_size}	${diff_bac_cf}
pair_coeff 11 21	0.000005763906669	${bac_size}	${diff_bac_cf}
pair_coeff 11 22	0.000005478601138	${bac_size}	${diff_bac_cf}
pair_coeff 11 23	0.000005233683573	${bac_size}	${diff_bac_cf}
pair_coeff 11 24	0.000004260049283	${bac_size}	${diff_bac_cf}
pair_coeff 11 25	0.000005666878808	${bac_size}	${diff_bac_cf}
pair_coeff 11 26	0.000005395176210	${bac_size}	${diff_bac_cf}
pair_coeff 11 27	0.000004889165646	${bac_size}	${diff_bac_cf}
pair_coeff 11 28	0.000004169328547	${bac_size}	${diff_bac_cf}
pair_coeff 11 29	0.000005779319981	${bac_size}	${diff_bac_cf}
pair_coeff 11 30	0.000005000492446	${bac_size}	${diff_bac_cf}
pair_coeff 11 31	0.000004143453026	${bac_size}	${diff_bac_cf}
pair_coeff 11 32	0.000004555127855	${bac_size}	${diff_bac_cf}
pair_coeff 11 33	0.000004716757106	${bac_size}	${diff_bac_cf}
pair_coeff 11 34	0.000005881317293	${bac_size}	${diff_bac_cf}
pair_coeff 11 35	0.000003904348648	${bac_size}	${diff_bac_cf}
pair_coeff 11 36	0.000004521585731	${bac_size}	${diff_bac_cf}
pair_coeff 12 13	0.000005180125157	${bac_size}	${diff_bac_cf}
pair_coeff 12 14	0.000005395435534	${bac_size}	${diff_bac_cf}
pair_coeff 12 15	0.000003519714574	${bac_size}	${diff_bac_cf}
pair_coeff 12 16	0.000003916230406	${bac_size}	${diff_bac_cf}
pair_coeff 12 17	0.000008440169686	${bac_size}	${diff_bac_cf}
pair_coeff 12 18	0.000005070390827	${bac_size}	${diff_bac_cf}
pair_coeff 12 19	0.000004711052535	${bac_size}	${diff_bac_cf}
pair_coeff 12 20	0.000004851082442	${bac_size}	${diff_bac_cf}
pair_coeff 12 21	0.000006885089573	${bac_size}	${diff_bac_cf}
pair_coeff 12 22	0.000004907675684	${bac_size}	${diff_bac_cf}
pair_coeff 12 23	0.000004447769740	${bac_size}	${diff_bac_cf}
pair_coeff 12 24	0.000004814732402	${bac_size}	${diff_bac_cf}
pair_coeff 12 25	0.000005093356994	${bac_size}	${diff_bac_cf}
pair_coeff 12 26	0.000005204422522	${bac_size}	${diff_bac_cf}
pair_coeff 12 27	0.000006893393576	${bac_size}	${diff_bac_cf}
pair_coeff 12 28	0.000005928032508	${bac_size}	${diff_bac_cf}
pair_coeff 12 29	0.000007705134368	${bac_size}	${diff_bac_cf}
pair_coeff 12 30	0.000005763396417	${bac_size}	${diff_bac_cf}
pair_coeff 12 31	0.000003919154271	${bac_size}	${diff_bac_cf}
pair_coeff 12 32	0.000003927733569	${bac_size}	${diff_bac_cf}
pair_coeff 12 33	0.000004642007978	${bac_size}	${diff_bac_cf}
pair_coeff 12 34	0.000005305442796	${bac_size}	${diff_bac_cf}
pair_coeff 12 35	0.000004617946445	${bac_size}	${diff_bac_cf}
pair_coeff 12 36	0.000005141614326	${bac_size}	${diff_bac_cf}
pair_coeff 13 14	0.000004372302739	${bac_size}	${diff_bac_cf}
pair_coeff 13 15	0.000004889607696	${bac_size}	${diff_bac_cf}
pair_coeff 13 16	0.000004390239247	${bac_size}	${diff_bac_cf}
pair_coeff 13 17	0.000005168729735	${bac_size}	${diff_bac_cf}
pair_coeff 13 18	0.000005268849553	${bac_size}	${diff_bac_cf}
pair_coeff 13 19	0.000004117212710	${bac_size}	${diff_bac_cf}
pair_coeff 13 20	0.000004917278261	${bac_size}	${diff_bac_cf}
pair_coeff 13 21	0.000004057124109	${bac_size}	${diff_bac_cf}
pair_coeff 13 22	0.000006609841519	${bac_size}	${diff_bac_cf}
pair_coeff 13 23	0.000004902230344	${bac_size}	${diff_bac_cf}
pair_coeff 13 24	0.000004567924686	${bac_size}	${diff_bac_cf}
pair_coeff 13 25	0.000004704374562	${bac_size}	${diff_bac_cf}
pair_coeff 13 26	0.000005104315967	${bac_size}	${diff_bac_cf}
pair_coeff 13 27	0.000003770076570	${bac_size}	${diff_bac_cf}
pair_coeff 13 28	0.000006968301524	${bac_size}	${diff_bac_cf}
pair_coeff 13 29	0.000005952238861	${bac_size}	${diff_bac_cf}
pair_coeff 13 30	0.000007022784479	${bac_size}	${diff_bac_cf}
pair_coeff 13 31	0.000005159948548	${bac_size}	${diff_bac_cf}
pair_coeff 13 32	0.000003868969795	${bac_size}	${diff_bac_cf}
pair_coeff 13 33	0.000004052634987	${bac_size}	${diff_bac_cf}
pair_coeff 13 34	0.000005797718686	${bac_size}	${diff_bac_cf}
pair_coeff 13 35	0.000003805910952	${bac_size}	${diff_bac_cf}
pair_coeff 13 36	0.000005143720039	${bac_size}	${diff_bac_cf}
pair_coeff 14 15	0.000004214431787	${bac_size}	${diff_bac_cf}
pair_coeff 14 16	0.000006040684248	${bac_size}	${diff_bac_cf}
pair_coeff 14 17	0.000010315354713	${bac_size}	${diff_bac_cf}
pair_coeff 14 18	0.000005028421250	${bac_size}	${diff_bac_cf}
pair_coeff 14 19	0.000004238143561	${bac_size}	${diff_bac_cf}
pair_coeff 14 20	0.000005486182669	${bac_size}	${diff_bac_cf}
pair_coeff 14 21	0.000005093197553	${bac_size}	${diff_bac_cf}
pair_coeff 14 22	0.000007414554091	${bac_size}	${diff_bac_cf}
pair_coeff 14 23	0.000005171997613	${bac_size}	${diff_bac_cf}
pair_coeff 14 24	0.000004936890083	${bac_size}	${diff_bac_cf}
pair_coeff 14 25	0.000005870805714	${bac_size}	${diff_bac_cf}
pair_coeff 14 26	0.000005300442799	${bac_size}	${diff_bac_cf}
pair_coeff 14 27	0.000005788827172	${bac_size}	${diff_bac_cf}
pair_coeff 14 28	0.000007651351354	${bac_size}	${diff_bac_cf}
pair_coeff 14 29	0.000006082074997	${bac_size}	${diff_bac_cf}
pair_coeff 14 30	0.000003645788259	${bac_size}	${diff_bac_cf}
pair_coeff 14 31	0.000004114221641	${bac_size}	${diff_bac_cf}
pair_coeff 14 32	0.000003935257536	${bac_size}	${diff_bac_cf}
pair_coeff 14 33	0.000003459900031	${bac_size}	${diff_bac_cf}
pair_coeff 14 34	0.000005103769948	${bac_size}	${diff_bac_cf}
pair_coeff 14 35	0.000004919367645	${bac_size}	${diff_bac_cf}
pair_coeff 14 36	0.000005889768000	${bac_size}	${diff_bac_cf}
pair_coeff 15 16	0.000006373237578	${bac_size}	${diff_bac_cf}
pair_coeff 15 17	0.000004417260175	${bac_size}	${diff_bac_cf}
pair_coeff 15 18	0.000004718111018	${bac_size}	${diff_bac_cf}
pair_coeff 15 19	0.000004506823985	${bac_size}	${diff_bac_cf}
pair_coeff 15 20	0.000005311402226	${bac_size}	${diff_bac_cf}
pair_coeff 15 21	0.000003958722647	${bac_size}	${diff_bac_cf}
pair_coeff 15 22	0.000004448814243	${bac_size}	${diff_bac_cf}
pair_coeff 15 23	0.000004074995701	${bac_size}	${diff_bac_cf}
pair_coeff 15 24	0.000004634507880	${bac_size}	${diff_bac_cf}
pair_coeff 15 25	0.000005784155534	${bac_size}	${diff_bac_cf}
pair_coeff 15 26	0.000005309764844	${bac_size}	${diff_bac_cf}
pair_coeff 15 27	0.000003640841904	${bac_size}	${diff_bac_cf}
pair_coeff 15 28	0.000005073529198	${bac_size}	${diff_bac_cf}
pair_coeff 15 29	0.000005613386076	${bac_size}	${diff_bac_cf}
pair_coeff 15 30	0.000004584104734	${bac_size}	${diff_bac_cf}
pair_coeff 15 31	0.000004091885427	${bac_size}	${diff_bac_cf}
pair_coeff 15 32	0.000004558374363	${bac_size}	${diff_bac_cf}
pair_coeff 15 33	0.000004653742520	${bac_size}	${diff_bac_cf}
pair_coeff 15 34	0.000004383053209	${bac_size}	${diff_bac_cf}
pair_coeff 15 35	0.000003815909200	${bac_size}	${diff_bac_cf}
pair_coeff 15 36	0.000004404023853	${bac_size}	${diff_bac_cf}
pair_coeff 16 17	0.000005999409348	${bac_size}	${diff_bac_cf}
pair_coeff 16 18	0.000005112478938	${bac_size}	${diff_bac_cf}
pair_coeff 16 19	0.000006539587913	${bac_size}	${diff_bac_cf}
pair_coeff 16 20	0.000006087866000	${bac_size}	${diff_bac_cf}
pair_coeff 16 21	0.000004074649297	${bac_size}	${diff_bac_cf}
pair_coeff 16 22	0.000004230188037	${bac_size}	${diff_bac_cf}
pair_coeff 16 23	0.000004999196766	${bac_size}	${diff_bac_cf}
pair_coeff 16 24	0.000004075429509	${bac_size}	${diff_bac_cf}
pair_coeff 16 25	0.000003710729118	${bac_size}	${diff_bac_cf}
pair_coeff 16 26	0.000004703309982	${bac_size}	${diff_bac_cf}
pair_coeff 16 27	0.000004296532559	${bac_size}	${diff_bac_cf}
pair_coeff 16 28	0.000005018886043	${bac_size}	${diff_bac_cf}
pair_coeff 16 29	0.000004954552923	${bac_size}	${diff_bac_cf}
pair_coeff 16 30	0.000005107405492	${bac_size}	${diff_bac_cf}
pair_coeff 16 31	0.000007069841708	${bac_size}	${diff_bac_cf}
pair_coeff 16 32	0.000005601355823	${bac_size}	${diff_bac_cf}
pair_coeff 16 33	0.000005500692679	${bac_size}	${diff_bac_cf}
pair_coeff 16 34	0.000004675257171	${bac_size}	${diff_bac_cf}
pair_coeff 16 35	0.000005052090576	${bac_size}	${diff_bac_cf}
pair_coeff 16 36	0.000006393891526	${bac_size}	${diff_bac_cf}
pair_coeff 17 18	0.000006606919936	${bac_size}	${diff_bac_cf}
pair_coeff 17 19	0.000003415047426	${bac_size}	${diff_bac_cf}
pair_coeff 17 20	0.000005597526310	${bac_size}	${diff_bac_cf}
pair_coeff 17 21	0.000004165305841	${bac_size}	${diff_bac_cf}
pair_coeff 17 22	0.000004944565718	${bac_size}	${diff_bac_cf}
pair_coeff 17 23	0.000004041588566	${bac_size}	${diff_bac_cf}
pair_coeff 17 24	0.000006853900711	${bac_size}	${diff_bac_cf}
pair_coeff 17 25	0.000007177332756	${bac_size}	${diff_bac_cf}
pair_coeff 17 26	0.000005051907637	${bac_size}	${diff_bac_cf}
pair_coeff 17 27	0.000004825177154	${bac_size}	${diff_bac_cf}
pair_coeff 17 28	0.000003865627283	${bac_size}	${diff_bac_cf}
pair_coeff 17 29	0.000005632511424	${bac_size}	${diff_bac_cf}
pair_coeff 17 30	0.000005674406896	${bac_size}	${diff_bac_cf}
pair_coeff 17 31	0.000007781481386	${bac_size}	${diff_bac_cf}
pair_coeff 17 32	0.000004214035427	${bac_size}	${diff_bac_cf}
pair_coeff 17 33	0.000005982168859	${bac_size}	${diff_bac_cf}
pair_coeff 17 34	0.000004654090224	${bac_size}	${diff_bac_cf}
pair_coeff 17 35	0.000006070017921	${bac_size}	${diff_bac_cf}
pair_coeff 17 36	0.000007338953658	${bac_size}	${diff_bac_cf}
pair_coeff 18 19	0.000007566661205	${bac_size}	${diff_bac_cf}
pair_coeff 18 20	0.000003979946334	${bac_size}	${diff_bac_cf}
pair_coeff 18 21	0.000007299733799	${bac_size}	${diff_bac_cf}
pair_coeff 18 22	0.000004594532079	${bac_size}	${diff_bac_cf}
pair_coeff 18 23	0.000004261285054	${bac_size}	${diff_bac_cf}
pair_coeff 18 24	0.000006270165956	${bac_size}	${diff_bac_cf}
pair_coeff 18 25	0.000005250803769	${bac_size}	${diff_bac_cf}
pair_coeff 18 26	0.000006003337271	${bac_size}	${diff_bac_cf}
pair_coeff 18 27	0.000006688760844	${bac_size}	${diff_bac_cf}
pair_coeff 18 28	0.000004151200906	${bac_size}	${diff_bac_cf}
pair_coeff 18 29	0.000003936664268	${bac_size}	${diff_bac_cf}
pair_coeff 18 30	0.000005588286608	${bac_size}	${diff_bac_cf}
pair_coeff 18 31	0.000005085992392	${bac_size}	${diff_bac_cf}
pair_coeff 18 32	0.000003878074165	${bac_size}	${diff_bac_cf}
pair_coeff 18 33	0.000005393310913	${bac_size}	${diff_bac_cf}
pair_coeff 18 34	0.000005017309954	${bac_size}	${diff_bac_cf}
pair_coeff 18 35	0.000004621822456	${bac_size}	${diff_bac_cf}
pair_coeff 18 36	0.000004633909545	${bac_size}	${diff_bac_cf}
pair_coeff 19 20	0.000004505218554	${bac_size}	${diff_bac_cf}
pair_coeff 19 21	0.000006202255866	${bac_size}	${diff_bac_cf}
pair_coeff 19 22	0.000005148564487	${bac_size}	${diff_bac_cf}
pair_coeff 19 23	0.000005803938338	${bac_size}	${diff_bac_cf}
pair_coeff 19 24	0.000004924521430	${bac_size}	${diff_bac_cf}
pair_coeff 19 25	0.000005959459723	${bac_size}	${diff_bac_cf}
pair_coeff 19 26	0.000003694748769	${bac_size}	${diff_bac_cf}
pair_coeff 19 27	0.000006374413211	${bac_size}	${diff_bac_cf}
pair_coeff 19 28	0.000003658851017	${bac_size}	${diff_bac_cf}
pair_coeff 19 29	0.000008212631744	${bac_size}	${diff_bac_cf}
pair_coeff 19 30	0.000004296610910	${bac_size}	${diff_bac_cf}
pair_coeff 19 31	0.000004370832422	${bac_size}	${diff_bac_cf}
pair_coeff 19 32	0.000004812734864	${bac_size}	${diff_bac_cf}
pair_coeff 19 33	0.000003971168182	${bac_size}	${diff_bac_cf}
pair_coeff 19 34	0.000003413184041	${bac_size}	${diff_bac_cf}
pair_coeff 19 35	0.000007120632539	${bac_size}	${diff_bac_cf}
pair_coeff 19 36	0.000005627140317	${bac_size}	${diff_bac_cf}
pair_coeff 20 21	0.000003747590604	${bac_size}	${diff_bac_cf}
pair_coeff 20 22	0.000005915622688	${bac_size}	${diff_bac_cf}
pair_coeff 20 23	0.000006186828271	${bac_size}	${diff_bac_cf}
pair_coeff 20 24	0.000005663106428	${bac_size}	${diff_bac_cf}
pair_coeff 20 25	0.000003774889658	${bac_size}	${diff_bac_cf}
pair_coeff 20 26	0.000004632723746	${bac_size}	${diff_bac_cf}
pair_coeff 20 27	0.000005408552059	${bac_size}	${diff_bac_cf}
pair_coeff 20 28	0.000005860517706	${bac_size}	${diff_bac_cf}
pair_coeff 20 29	0.000004193964062	${bac_size}	${diff_bac_cf}
pair_coeff 20 30	0.000005580783827	${bac_size}	${diff_bac_cf}
pair_coeff 20 31	0.000013248887236	${bac_size}	${diff_bac_cf}
pair_coeff 20 32	0.000003876247156	${bac_size}	${diff_bac_cf}
pair_coeff 20 33	0.000005374437017	${bac_size}	${diff_bac_cf}
pair_coeff 20 34	0.000004072515728	${bac_size}	${diff_bac_cf}
pair_coeff 20 35	0.000003825180382	${bac_size}	${diff_bac_cf}
pair_coeff 20 36	0.000005677392461	${bac_size}	${diff_bac_cf}
pair_coeff 21 22	0.000005627518315	${bac_size}	${diff_bac_cf}
pair_coeff 21 23	0.000004289649405	${bac_size}	${diff_bac_cf}
pair_coeff 21 24	0.000003698913667	${bac_size}	${diff_bac_cf}
pair_coeff 21 25	0.000005570994208	${bac_size}	${diff_bac_cf}
pair_coeff 21 26	0.000005106741270	${bac_size}	${diff_bac_cf}
pair_coeff 21 27	0.000013561566130	${bac_size}	${diff_bac_cf}
pair_coeff 21 28	0.000007997818114	${bac_size}	${diff_bac_cf}
pair_coeff 21 29	0.000004061700527	${bac_size}	${diff_bac_cf}
pair_coeff 21 30	0.000005588267592	${bac_size}	${diff_bac_cf}
pair_coeff 21 31	0.000004510874849	${bac_size}	${diff_bac_cf}
pair_coeff 21 32	0.000004519655233	${bac_size}	${diff_bac_cf}
pair_coeff 21 33	0.000005800985108	${bac_size}	${diff_bac_cf}
pair_coeff 21 34	0.000004286774479	${bac_size}	${diff_bac_cf}
pair_coeff 21 35	0.000003926702829	${bac_size}	${diff_bac_cf}
pair_coeff 21 36	0.000003815225299	${bac_size}	${diff_bac_cf}
pair_coeff 22 23	0.000005366133208	${bac_size}	${diff_bac_cf}
pair_coeff 22 24	0.000004543463046	${bac_size}	${diff_bac_cf}
pair_coeff 22 25	0.000005619854019	${bac_size}	${diff_bac_cf}
pair_coeff 22 26	0.000004457388596	${bac_size}	${diff_bac_cf}
pair_coeff 22 27	0.000004904812748	${bac_size}	${diff_bac_cf}
pair_coeff 22 28	0.000004737444598	${bac_size}	${diff_bac_cf}
pair_coeff 22 29	0.000004692556192	${bac_size}	${diff_bac_cf}
pair_coeff 22 30	0.000005192478681	${bac_size}	${diff_bac_cf}
pair_coeff 22 31	0.000004223916656	${bac_size}	${diff_bac_cf}
pair_coeff 22 32	0.000004643951859	${bac_size}	${diff_bac_cf}
pair_coeff 22 33	0.000006012402272	${bac_size}	${diff_bac_cf}
pair_coeff 22 34	0.000003922942347	${bac_size}	${diff_bac_cf}
pair_coeff 22 35	0.000005587026172	${bac_size}	${diff_bac_cf}
pair_coeff 22 36	0.000004916582370	${bac_size}	${diff_bac_cf}
pair_coeff 23 24	0.000009710538184	${bac_size}	${diff_bac_cf}
pair_coeff 23 25	0.000007749479274	${bac_size}	${diff_bac_cf}
pair_coeff 23 26	0.000005483481171	${bac_size}	${diff_bac_cf}
pair_coeff 23 27	0.000003982604396	${bac_size}	${diff_bac_cf}
pair_coeff 23 28	0.000004425808038	${bac_size}	${diff_bac_cf}
pair_coeff 23 29	0.000005991430575	${bac_size}	${diff_bac_cf}
pair_coeff 23 30	0.000005778290282	${bac_size}	${diff_bac_cf}
pair_coeff 23 31	0.000004671854685	${bac_size}	${diff_bac_cf}
pair_coeff 23 32	0.000005261750859	${bac_size}	${diff_bac_cf}
pair_coeff 23 33	0.000004540886654	${bac_size}	${diff_bac_cf}
pair_coeff 23 34	0.000003978778452	${bac_size}	${diff_bac_cf}
pair_coeff 23 35	0.000004545597649	${bac_size}	${diff_bac_cf}
pair_coeff 23 36	0.000004874542853	${bac_size}	${diff_bac_cf}
pair_coeff 24 25	0.000007744227395	${bac_size}	${diff_bac_cf}
pair_coeff 24 26	0.000004385151072	${bac_size}	${diff_bac_cf}
pair_coeff 24 27	0.000005873646193	${bac_size}	${diff_bac_cf}
pair_coeff 24 28	0.000007242810991	${bac_size}	${diff_bac_cf}