pair_coeff 1 2	0.000000056334371	${bac_size}	${diff_bac_cf}
pair_coeff 1 3	0.000000053877934	${bac_size}	${diff_bac_cf}
pair_coeff 1 4	0.000000073453433	${bac_size}	${diff_bac_cf}
pair_coeff 1 5	0.000000036774829	${bac_size}	${diff_bac_cf}
pair_coeff 1 6	0.000000039559687	${bac_size}	${diff_bac_cf}
pair_coeff 1 7	0.000000049590936	${bac_size}	${diff_bac_cf}
pair_coeff 1 8	0.000000046484559	${bac_size}	${diff_bac_cf}
pair_coeff 1 9	0.000000033363905	${bac_size}	${diff_bac_cf}
pair_coeff 1 10	0.000000045352911	${bac_size}	${diff_bac_cf}
pair_coeff 1 11	0.000000043750316	${bac_size}	${diff_bac_cf}
pair_coeff 1 12	0.000000062614199	${bac_size}	${diff_bac_cf}
pair_coeff 1 13	0.000000037758730	${bac_size}	${diff_bac_cf}
pair_coeff 1 14	0.000000048737137	${bac_size}	${diff_bac_cf}
pair_coeff 1 15	0.000000073231740	${bac_size}	${diff_bac_cf}
pair_coeff 1 16	0.000000058162599	${bac_size}	${diff_bac_cf}
pair_coeff 1 17	0.000000040960712	${bac_size}	${diff_bac_cf}
pair_coeff 1 18	0.000000041454385	${bac_size}	${diff_bac_cf}
pair_coeff 1 19	0.000000050098838	${bac_size}	${diff_bac_cf}
pair_coeff 1 20	0.000000087537015	${bac_size}	${diff_bac_cf}
pair_coeff 1 21	0.000000056279479	${bac_size}	${diff_bac_cf}
pair_coeff 1 22	0.000000045249166	${bac_size}	${diff_bac_cf}
pair_coeff 1 23	0.000000043341993	${bac_size}	${diff_bac_cf}
pair_coeff 1 24	0.000000045117397	${bac_size}	${diff_bac_cf}
pair_coeff 1 25	0.000000040979205	${bac_size}	${diff_bac_cf}
pair_coeff 1 26	0.000000044976770	${bac_size}	${diff_bac_cf}
pair_coeff 1 27	0.000000050346915	${bac_size}	${diff_bac_cf}
pair_coeff 1 28	0.000000047085263	${bac_size}	${diff_bac_cf}
pair_coeff 1 29	0.000000042522521	${bac_size}	${diff_bac_cf}
pair_coeff 1 30	0.000000067417972	${bac_size}	${diff_bac_cf}
pair_coeff 1 31	0.000000056487245	${bac_size}	${diff_bac_cf}
pair_coeff 1 32	0.000000060432701	${bac_size}	${diff_bac_cf}
pair_coeff 1 33	0.000000053357611	${bac_size}	${diff_bac_cf}
pair_coeff 1 34	0.000000075597027	${bac_size}	${diff_bac_cf}
pair_coeff 2 3	0.000000051375820	${bac_size}	${diff_bac_cf}
pair_coeff 2 4	0.000000035704838	${bac_size}	${diff_bac_cf}
pair_coeff 2 5	0.000000041343594	${bac_size}	${diff_bac_cf}
pair_coeff 2 6	0.000000051767091	${bac_size}	${diff_bac_cf}
pair_coeff 2 7	0.000000044248580	${bac_size}	${diff_bac_cf}
pair_coeff 2 8	0.000000044972206	${bac_size}	${diff_bac_cf}
pair_coeff 2 9	0.000000050122752	${bac_size}	${diff_bac_cf}
pair_coeff 2 10	0.000000035821063	${bac_size}	${diff_bac_cf}
pair_coeff 2 11	0.000000059414737	${bac_size}	${diff_bac_cf}
pair_coeff 2 12	0.000000089835890	${bac_size}	${diff_bac_cf}
pair_coeff 2 13	0.000000052978998	${bac_size}	${diff_bac_cf}
pair_coeff 2 14	0.000000055264223	${bac_size}	${diff_bac_cf}
pair_coeff 2 15	0.000000054276343	${bac_size}	${diff_bac_cf}
pair_coeff 2 16	0.000000049405100	${bac_size}	${diff_bac_cf}
pair_coeff 2 17	0.000000054512298	${bac_size}	${diff_bac_cf}
pair_coeff 2 18	0.000000064323880	${bac_size}	${diff_bac_cf}
pair_coeff 2 19	0.000000036513915	${bac_size}	${diff_bac_cf}
pair_coeff 2 20	0.000000071472912	${bac_size}	${diff_bac_cf}
pair_coeff 2 21	0.000000049243496	${bac_size}	${diff_bac_cf}
pair_coeff 2 22	0.000000038706787	${bac_size}	${diff_bac_cf}
pair_coeff 2 23	0.000000059356564	${bac_size}	${diff_bac_cf}
pair_coeff 2 24	0.000000042782462	${bac_size}	${diff_bac_cf}
pair_coeff 2 25	0.000000109728427	${bac_size}	${diff_bac_cf}
pair_coeff 2 26	0.000000059278470	${bac_size}	${diff_bac_cf}
pair_coeff 2 27	0.000000057130233	${bac_size}	${diff_bac_cf}
pair_coeff 2 28	0.000000047151619	${bac_size}	${diff_bac_cf}
pair_coeff 2 29	0.000000055551367	${bac_size}	${diff_bac_cf}
pair_coeff 2 30	0.000000072635498	${bac_size}	${diff_bac_cf}
pair_coeff 2 31	0.000000056235143	${bac_size}	${diff_bac_cf}
pair_coeff 2 32	0.000000077264879	${bac_size}	${diff_bac_cf}
pair_coeff 2 33	0.000000046190728	${bac_size}	${diff_bac_cf}
pair_coeff 2 34	0.000000050492170	${bac_size}	${diff_bac_cf}
pair_coeff 3 4	0.000000043204175	${bac_size}	${diff_bac_cf}
pair_coeff 3 5	0.000000045993591	${bac_size}	${diff_bac_cf}
pair_coeff 3 6	0.000000042610186	${bac_size}	${diff_bac_cf}
pair_coeff 3 7	0.000000046360139	${bac_size}	${diff_bac_cf}
pair_coeff 3 8	0.000000038873644	${bac_size}	${diff_bac_cf}
pair_coeff 3 9	0.000000058746455	${bac_size}	${diff_bac_cf}
pair_coeff 3 10	0.000000059088843	${bac_size}	${diff_bac_cf}
pair_coeff 3 11	0.000000052058874	${bac_size}	${diff_bac_cf}
pair_coeff 3 12	0.000000045397708	${bac_size}	${diff_bac_cf}
pair_coeff 3 13	0.000000060586212	${bac_size}	${diff_bac_cf}
pair_coeff 3 14	0.000000087377327	${bac_size}	${diff_bac_cf}
pair_coeff 3 15	0.000000061354549	${bac_size}	${diff_bac_cf}
pair_coeff 3 16	0.000000088743991	${bac_size}	${diff_bac_cf}
pair_coeff 3 17	0.000000060477939	${bac_size}	${diff_bac_cf}
pair_coeff 3 18	0.000000045094165	${bac_size}	${diff_bac_cf}
pair_coeff 3 19	0.000000057999390	${bac_size}	${diff_bac_cf}
pair_coeff 3 20	0.000000054633590	${bac_size}	${diff_bac_cf}
pair_coeff 3 21	0.000000049850650	${bac_size}	${diff_bac_cf}
pair_coeff 3 22	0.000000050184777	${bac_size}	${diff_bac_cf}
pair_coeff 3 23	0.000000038098343	${bac_size}	${diff_bac_cf}
pair_coeff 3 24	0.000000055005855	${bac_size}	${diff_bac_cf}
pair_coeff 3 25	0.000000047396234	${bac_size}	${diff_bac_cf}
pair_coeff 3 26	0.000000044327582	${bac_size}	${diff_bac_cf}
pair_coeff 3 27	0.000000041205264	${bac_size}	${diff_bac_cf}
pair_coeff 3 28	0.000000047916810	${bac_size}	${diff_bac_cf}
pair_coeff 3 29	0.000000044721115	${bac_size}	${diff_bac_cf}
pair_coeff 3 30	0.000000042807394	${bac_size}	${diff_bac_cf}
pair_coeff 3 31	0.000000039895232	${bac_size}	${diff_bac_cf}
pair_coeff 3 32	0.000000049242067	${bac_size}	${diff_bac_cf}
pair_coeff 3 33	0.000000072654024	${bac_size}	${diff_bac_cf}
pair_coeff 3 34	0.000000056894223	${bac_size}	${diff_bac_cf}
pair_coeff 4 5	0.000000049592587	${bac_size}	${diff_bac_cf}
pair_coeff 4 6	0.000000034113192	${bac_size}	${diff_bac_cf}
pair_coeff 4 7	0.000000053333946	${bac_size}	${diff_bac_cf}
pair_coeff 4 8	0.000000050539309	${bac_size}	${diff_bac_cf}
pair_coeff 4 9	0.000000087955100	${bac_size}	${diff_bac_cf}
pair_coeff 4 10	0.000000070187772	${bac_size}	${diff_bac_cf}
pair_coeff 4 11	0.000000049817316	${bac_size}	${diff_bac_cf}
pair_coeff 4 12	0.000000051627809	${bac_size}	${diff_bac_cf}
pair_coeff 4 13	0.000000054249733	${bac_size}	${diff_bac_cf}
pair_coeff 4 14	0.000000041850235	${bac_size}	${diff_bac_cf}
pair_coeff 4 15	0.000000047331913	${bac_size}	${diff_bac_cf}
pair_coeff 4 16	0.000000040785364	${bac_size}	${diff_bac_cf}
pair_coeff 4 17	0.000000053158137	${bac_size}	${diff_bac_cf}
pair_coeff 4 18	0.000000050163562	${bac_size}	${diff_bac_cf}
pair_coeff 4 19	0.000000042128628	${bac_size}	${diff_bac_cf}
pair_coeff 4 20	0.000000046639549	${bac_size}	${diff_bac_cf}
pair_coeff 4 21	0.000000053642463	${bac_size}	${diff_bac_cf}
pair_coeff 4 22	0.000000054376974	${bac_size}	${diff_bac_cf}
pair_coeff 4 23	0.000000041762682	${bac_size}	${diff_bac_cf}
pair_coeff 4 24	0.000000029648533	${bac_size}	${diff_bac_cf}
pair_coeff 4 25	0.000000074262165	${bac_size}	${diff_bac_cf}
pair_coeff 4 26	0.000000045644874	${bac_size}	${diff_bac_cf}
pair_coeff 4 27	0.000000047923698	${bac_size}	${diff_bac_cf}
pair_coeff 4 28	0.000000047583706	${bac_size}	${diff_bac_cf}
pair_coeff 4 29	0.000000049558094	${bac_size}	${diff_bac_cf}
pair_coeff 4 30	0.000000043513506	${bac_size}	${diff_bac_cf}
pair_coeff 4 31	0.000000060609985	${bac_size}	${diff_bac_cf}
pair_coeff 4 32	0.000000042779071	${bac_size}	${diff_bac_cf}
pair_coeff 4 33	0.000000051939239	${bac_size}	${diff_bac_cf}
pair_coeff 4 34	0.000000043167366	${bac_size}	${diff_bac_cf}
pair_coeff 5 6	0.000000054357311	${bac_size}	${diff_bac_cf}
pair_coeff 5 7	0.000000066411123	${bac_size}	${diff_bac_cf}
pair_coeff 5 8	0.000000056895694	${bac_size}	${diff_bac_cf}
pair_coeff 5 9	0.000000048601583	${bac_size}	${diff_bac_cf}
pair_coeff 5 10	0.000000067817926	${bac_size}	${diff_bac_cf}
pair_coeff 5 11	0.000000045765408	${bac_size}	${diff_bac_cf}
pair_coeff 5 12	0.000000056900185	${bac_size}	${diff_bac_cf}
pair_coeff 5 13	0.000000054094958	${bac_size}	${diff_bac_cf}
pair_coeff 5 14	0.000000052475871	${bac_size}	${diff_bac_cf}
pair_coeff 5 15	0.000000078070857	${bac_size}	${diff_bac_cf}
pair_coeff 5 16	0.000000072104130	${bac_size}	${diff_bac_cf}
pair_coeff 5 17	0.000000056167434	${bac_size}	${diff_bac_cf}
pair_coeff 5 18	0.000000047322189	${bac_size}	${diff_bac_cf}
pair_coeff 5 19	0.000000059348650	${bac_size}	${diff_bac_cf}
pair_coeff 5 20	0.000000038986977	${bac_size}	${diff_bac_cf}
pair_coeff 5 21	0.000000048965958	${bac_size}	${diff_bac_cf}
pair_coeff 5 22	0.000000051700841	${bac_size}	${diff_bac_cf}
pair_coeff 5 23	0.000000049312203	${bac_size}	${diff_bac_cf}
pair_coeff 5 24	0.000000051400820	${bac_size}	${diff_bac_cf}
pair_coeff 5 25	0.000000055628013	${bac_size}	${diff_bac_cf}
pair_coeff 5 26	0.000000064581807	${bac_size}	${diff_bac_cf}
pair_coeff 5 27	0.000000050564600	${bac_size}	${diff_bac_cf}
pair_coeff 5 28	0.000000046464868	${bac_size}	${diff_bac_cf}
pair_coeff 5 29	0.000000062215202	${bac_size}	${diff_bac_cf}
pair_coeff 5 30	0.000000046940803	${bac_size}	${diff_bac_cf}
pair_coeff 5 31	0.000000056165085	${bac_size}	${diff_bac_cf}
pair_coeff 5 32	0.000000033957582	${bac_size}	${diff_bac_cf}
pair_coeff 5 33	0.000000046122329	${bac_size}	${diff_bac_cf}
pair_coeff 5 34	0.000000051073125	${bac_size}	${diff_bac_cf}
pair_coeff 6 7	0.000000061052170	${bac_size}	${diff_bac_cf}
pair_coeff 6 8	0.000000062776090	${bac_size}	${diff_bac_cf}
pair_coeff 6 9	0.000000058270392	${bac_size}	${diff_bac_cf}
pair_coeff 6 10	0.000000055953138	${bac_size}	${diff_bac_cf}
pair_coeff 6 11	0.000000058955861	${bac_size}	${diff_bac_cf}
pair_coeff 6 12	0.000000060327366	${bac_size}	${diff_bac_cf}
pair_coeff 6 13	0.000000051140725	${bac_size}	${diff_bac_cf}
pair_coeff 6 14	0.000000040838608	${bac_size}	${diff_bac_cf}
pair_coeff 6 15	0.000000038540864	${bac_size}	${diff_bac_cf}
pair_coeff 6 16	0.000000056483636	${bac_size}	${diff_bac_cf}
pair_coeff 6 17	0.000000047409550	${bac_size}	${diff_bac_cf}
pair_coeff 6 18	0.000000046674595	${bac_size}	${diff_bac_cf}
pair_coeff 6 19	0.000000043132184	${bac_size}	${diff_bac_cf}
pair_coeff 6 20	0.000000043955810	${bac_size}	${diff_bac_cf}
pair_coeff 6 21	0.000000041427578	${bac_size}	${diff_bac_cf}
pair_coeff 6 22	0.000000067073697	${bac_size}	${diff_bac_cf}
pair_coeff 6 23	0.000000058954854	${bac_size}	${diff_bac_cf}
pair_coeff 6 24	0.000000047373148	${bac_size}	${diff_bac_cf}
pair_coeff 6 25	0.000000040537083	${bac_size}	${diff_bac_cf}
pair_coeff 6 26	0.000000049734244	${bac_size}	${diff_bac_cf}
pair_coeff 6 27	0.000000049813581	${bac_size}	${diff_bac_cf}
pair_coeff 6 28	0.000000055393791	${bac_size}	${diff_bac_cf}
pair_coeff 6 29	0.000000052818421	${bac_size}	${diff_bac_cf}
pair_coeff 6 30	0.000000051017859	${bac_size}	${diff_bac_cf}
pair_coeff 6 31	0.000000054331354	${bac_size}	${diff_bac_cf}
pair_coeff 6 32	0.000000041186582	${bac_size}	${diff_bac_cf}
pair_coeff 6 33	0.000000061222996	${bac_size}	${diff_bac_cf}
pair_coeff 6 34	0.000000042179015	${bac_size}	${diff_bac_cf}
pair_coeff 7 8	0.000000054989881	${bac_size}	${diff_bac_cf}
pair_coeff 7 9	0.000000067040811	${bac_size}	${diff_bac_cf}
pair_coeff 7 10	0.000000055072454	${bac_size}	${diff_bac_cf}
pair_coeff 7 11	0.000000058912957	${bac_size}	${diff_bac_cf}
pair_coeff 7 12	0.000000043454425	${bac_size}	${diff_bac_cf}
pair_coeff 7 13	0.000000042336172	${bac_size}	${diff_bac_cf}
pair_coeff 7 14	0.000000065805974	${bac_size}	${diff_bac_cf}
pair_coeff 7 15	0.000000061754364	${bac_size}	${diff_bac_cf}
pair_coeff 7 16	0.000000049197206	${bac_size}	${diff_bac_cf}
pair_coeff 7 17	0.000000038057176	${bac_size}	${diff_bac_cf}
pair_coeff 7 18	0.000000049398511	${bac_size}	${diff_bac_cf}
pair_coeff 7 19	0.000000048214419	${bac_size}	${diff_bac_cf}
pair_coeff 7 20	0.000000064237218	${bac_size}	${diff_bac_cf}
pair_coeff 7 21	0.000000064576274	${bac_size}	${diff_bac_cf}
pair_coeff 7 22	0.000000045490435	${bac_size}	${diff_bac_cf}
pair_coeff 7 23	0.000000071962857	${bac_size}	${diff_bac_cf}
pair_coeff 7 24	0.000000052330078	${bac_size}	${diff_bac_cf}
pair_coeff 7 25	0.000000052020905	${bac_size}	${diff_bac_cf}
pair_coeff 7 26	0.000000095401949	${bac_size}	${diff_bac_cf}
pair_coeff 7 27	0.000000065682370	${bac_size}	${diff_bac_cf}
pair_coeff 7 28	0.000000065728891	${bac_size}	${diff_bac_cf}
pair_coeff 7 29	0.000000049450774	${bac_size}	${diff_bac_cf}
pair_coeff 7 30	0.000000037571551	${bac_size}	${diff_bac_cf}
pair_coeff 7 31	0.000000129374752	${bac_size}	${diff_bac_cf}
pair_coeff 7 32	0.000000056449246	${bac_size}	${diff_bac_cf}
pair_coeff 7 33	0.000000088591909	${bac_size}	${diff_bac_cf}
pair_coeff 7 34	0.000000060591428	${bac_size}	${diff_bac_cf}
pair_coeff 8 9	0.000000072564223	${bac_size}	${diff_bac_cf}
pair_coeff 8 10	0.000000048527798	${bac_size}	${diff_bac_cf}
pair_coeff 8 11	0.000000044070746	${bac_size}	${diff_bac_cf}
pair_coeff 8 12	0.000000040721849	${bac_size}	${diff_bac_cf}
pair_coeff 8 13	0.000000059302772	${bac_size}	${diff_bac_cf}
pair_coeff 8 14	0.000000046948620	${bac_size}	${diff_bac_cf}
pair_coeff 8 15	0.000000044941998	${bac_size}	${diff_bac_cf}
pair_coeff 8 16	0.000000051289745	${bac_size}	${diff_bac_cf}
pair_coeff 8 17	0.000000060729729	${bac_size}	${diff_bac_cf}
pair_coeff 8 18	0.000000037131854	${bac_size}	${diff_bac_cf}
pair_coeff 8 19	0.000000041653706	${bac_size}	${diff_bac_cf}
pair_coeff 8 20	0.000000039594978	${bac_size}	${diff_bac_cf}
pair_coeff 8 21	0.000000042852412	${bac_size}	${diff_bac_cf}
pair_coeff 8 22	0.000000053194073	${bac_size}	${diff_bac_cf}
pair_coeff 8 23	0.000000040854257	${bac_size}	${diff_bac_cf}
pair_coeff 8 24	0.000000046366975	${bac_size}	${diff_bac_cf}
pair_coeff 8 25	0.000000053716919	${bac_size}	${diff_bac_cf}
pair_coeff 8 26	0.000000049974796	${bac_size}	${diff_bac_cf}
pair_coeff 8 27	0.000000049193019	${bac_size}	${diff_bac_cf}
pair_coeff 8 28	0.000000048371815	${bac_size}	${diff_bac_cf}
pair_coeff 8 29	0.000000054577149	${bac_size}	${diff_bac_cf}
pair_coeff 8 30	0.000000056750564	${bac_size}	${diff_bac_cf}
pair_coeff 8 31	0.000000046117039	${bac_size}	${diff_bac_cf}
pair_coeff 8 32	0.000000043898866	${bac_size}	${diff_bac_cf}
pair_coeff 8 33	0.000000065411327	${bac_size}	${diff_bac_cf}
pair_coeff 8 34	0.000000065473392	${bac_size}	${diff_bac_cf}
pair_coeff 9 10	0.000000041939786	${bac_size}	${diff_bac_cf}
pair_coeff 9 11	0.000000138565129	${bac_size}	${diff_bac_cf}
pair_coeff 9 12	0.000000046116941	${bac_size}	${diff_bac_cf}
pair_coeff 9 13	0.000000050404810	${bac_size}	${diff_bac_cf}
pair_coeff 9 14	0.000000062905647	${bac_size}	${diff_bac_cf}
pair_coeff 9 15	0.000000069153691	${bac_size}	${diff_bac_cf}
pair_coeff 9 16	0.000000045620447	${bac_size}	${diff_bac_cf}
pair_coeff 9 17	0.000000078334067	${bac_size}	${diff_bac_cf}
pair_coeff 9 18	0.000000071403605	${bac_size}	${diff_bac_cf}
pair_coeff 9 19	0.000000046195054	${bac_size}	${diff_bac_cf}
pair_coeff 9 20	0.000000050757747	${bac_size}	${diff_bac_cf}
pair_coeff 9 21	0.000000050001032	${bac_size}	${diff_bac_cf}
pair_coeff 9 22	0.000000043799527	${bac_size}	${diff_bac_cf}
pair_coeff 9 23	0.000000042319888	${bac_size}	${diff_bac_cf}
pair_coeff 9 24	0.000000054006184	${bac_size}	${diff_bac_cf}
pair_coeff 9 25	0.000000060904845	${bac_size}	${diff_bac_cf}
pair_coeff 9 26	0.000000072902210	${bac_size}	${diff_bac_cf}
pair_coeff 9 27	0.000000093853670	${bac_size}	${diff_bac_cf}
pair_coeff 9 28	0.000000042696933	${bac_size}	${diff_bac_cf}
pair_coeff 9 29	0.000000046815385	${bac_size}	${diff_bac_cf}
pair_coeff 9 30	0.000000050690757	${bac_size}	${diff_bac_cf}
pair_coeff 9 31	0.000000059465370	${bac_size}	${diff_bac_cf}
pair_coeff 9 32	0.000000082866444	${bac_size}	${diff_bac_cf}
pair_coeff 9 33	0.000000048928280	${bac_size}	${diff_bac_cf}
pair_coeff 9 34	0.000000057100639	${bac_size}	${diff_bac_cf}
pair_coeff 10 11	0.000000077550978	${bac_size}	${diff_bac_cf}
pair_coeff 10 12	0.000000066014496	${bac_size}	${diff_bac_cf}
pair_coeff 10 13	0.000000040892592	${bac_size}	${diff_bac_cf}
pair_coeff 10 14	0.000000047074803	${bac_size}	${diff_bac_cf}
pair_coeff 10 15	0.000000046475567	${bac_size}	${diff_bac_cf}
pair_coeff 10 16	0.000000051596069	${bac_size}	${diff_bac_cf}
pair_coeff 10 17	0.000000058027270	${bac_size}	${diff_bac_cf}
pair_coeff 10 18	0.000000043773059	${bac_size}	${diff_bac_cf}
pair_coeff 10 19	0.000000064058575	${bac_size}	${diff_bac_cf}
pair_coeff 10 20	0.000000052130210	${bac_size}	${diff_bac_cf}
pair_coeff 10 21	0.000000057545638	${bac_size}	${diff_bac_cf}
pair_coeff 10 22	0.000000040952180	${bac_size}	${diff_bac_cf}
pair_coeff 10 23	0.000000049336551	${bac_size}	${diff_bac_cf}
pair_coeff 10 24	0.000000037297963	${bac_size}	${diff_bac_cf}
pair_coeff 10 25	0.000000042892158	${bac_size}	${diff_bac_cf}
pair_coeff 10 26	0.000000064336111	${bac_size}	${diff_bac_cf}
pair_coeff 10 27	0.000000045478595	${bac_size}	${diff_bac_cf}
pair_coeff 10 28	0.000000048020672	${bac_size}	${diff_bac_cf}
pair_coeff 10 29	0.000000057424773	${bac_size}	${diff_bac_cf}
pair_coeff 10 30	0.000000047929930	${bac_size}	${diff_bac_cf}
pair_coeff 10 31	0.000000047585931	${bac_size}	${diff_bac_cf}
pair_coeff 10 32	0.000000043926232	${bac_size}	${diff_bac_cf}
pair_coeff 10 33	0.000000044111767	${bac_size}	${diff_bac_cf}
pair_coeff 10 34	0.000000035417629	${bac_size}	${diff_bac_cf}
pair_coeff 11 12	0.000000052713201	${bac_size}	${diff_bac_cf}
pair_coeff 11 13	0.000000043514175	${bac_size}	${diff_bac_cf}
pair_coeff 11 14	0.000000036581304	${bac_size}	${diff_bac_cf}
pair_coeff 11 15	0.000000055628267	${bac_size}	${diff_bac_cf}
pair_coeff 11 16	0.000000044909228	${bac_size}	${diff_bac_cf}
pair_coeff 11 17	0.000000054539435	${bac_size}	${diff_bac_cf}
pair_coeff 11 18	0.000000101532586	${bac_size}	${diff_bac_cf}
pair_coeff 11 19	0.000000062742647	${bac_size}	${diff_bac_cf}
pair_coeff 11 20	0.000000049188378	${bac_size}	${diff_bac_cf}
pair_coeff 11 21	0.000000052920045	${bac_size}	${diff_bac_cf}
pair_coeff 11 22	0.000000063721044	${bac_size}	${diff_bac_cf}
pair_coeff 11 23	0.000000063790971	${bac_size}	${diff_bac_cf}
pair_coeff 11 24	0.000000047662862	${bac_size}	${diff_bac_cf}
pair_coeff 11 25	0.000000038477595	${bac_size}	${diff_bac_cf}
pair_coeff 11 26	0.000000053953859	${bac_size}	${diff_bac_cf}
pair_coeff 11 27	0.000000046830113	${bac_size}	${diff_bac_cf}
pair_coeff 11 28	0.000000045210378	${bac_size}	${diff_bac_cf}
pair_coeff 11 29	0.000000042541431	${bac_size}	${diff_bac_cf}
pair_coeff 11 30	0.000000056149207	${bac_size}	${diff_bac_cf}
pair_coeff 11 31	0.000000054577161	${bac_size}	${diff_bac_cf}
pair_coeff 11 32	0.000000037234344	${bac_size}	${diff_bac_cf}
pair_coeff 11 33	0.000000066045613	${bac_size}	${diff_bac_cf}
pair_coeff 11 34	0.000000044116314	${bac_size}	${diff_bac_cf}
pair_coeff 12 13	0.000000045773432	${bac_size}	${diff_bac_cf}
pair_coeff 12 14	0.000000056423565	${bac_size}	${diff_bac_cf}
pair_coeff 12 15	0.000000043625705	${bac_size}	${diff_bac_cf}
pair_coeff 12 16	0.000000047873451	${bac_size}	${diff_bac_cf}
pair_coeff 12 17	0.000000045414040	${bac_size}	${diff_bac_cf}
pair_coeff 12 18	0.000000040421548	${bac_size}	${diff_bac_cf}
pair_coeff 12 19	0.000000048001364	${bac_size}	${diff_bac_cf}
pair_coeff 12 20	0.000000057722608	${bac_size}	${diff_bac_cf}
pair_coeff 12 21	0.000000047636974	${bac_size}	${diff_bac_cf}
pair_coeff 12 22	0.000000070564218	${bac_size}	${diff_bac_cf}
pair_coeff 12 23	0.000000049047624	${bac_size}	${diff_bac_cf}
pair_coeff 12 24	0.000000043528406	${bac_size}	${diff_bac_cf}
pair_coeff 12 25	0.000000039029553	${bac_size}	${diff_bac_cf}
pair_coeff 12 26	0.000000060885834	${bac_size}	${diff_bac_cf}
pair_coeff 12 27	0.000000057911166	${bac_size}	${diff_bac_cf}
pair_coeff 12 28	0.000000040516863	${bac_size}	${diff_bac_cf}
pair_coeff 12 29	0.000000044872459	${bac_size}	${diff_bac_cf}
pair_coeff 12 30	0.000000039427155	${bac_size}	${diff_bac_cf}
pair_coeff 12 31	0.000000066861863	${bac_size}	${diff_bac_cf}
pair_coeff 12 32	0.000000052436430	${bac_size}	${diff_bac_cf}
pair_coeff 12 33	0.000000041670702	${bac_size}	${diff_bac_cf}
pair_coeff 12 34	0.000000065107922	${bac_size}	${diff_bac_cf}
pair_coeff 13 14	0.000000071822133	${bac_size}	${diff_bac_cf}
pair_coeff 13 15	0.000000045859504	${bac_size}	${diff_bac_cf}
pair_coeff 13 16	0.000000039116557	${bac_size}	${diff_bac_cf}
pair_coeff 13 17	0.000000043229266	${bac_size}	${diff_bac_cf}
pair_coeff 13 18	0.000000052723296	${bac_size}	${diff_bac_cf}
pair_coeff 13 19	0.000000057361135	${bac_size}	${diff_bac_cf}
pair_coeff 13 20	0.000000042395017	${bac_size}	${diff_bac_cf}
pair_coeff 13 21	0.000000063580107	${bac_size}	${diff_bac_cf}
pair_coeff 13 22	0.000000071269178	${bac_size}	${diff_bac_cf}
pair_coeff 13 23	0.000000045738018	${bac_size}	${diff_bac_cf}
pair_coeff 13 24	0.000000061903938	${bac_size}	${diff_bac_cf}
pair_coeff 13 25	0.000000043352335	${bac_size}	${diff_bac_cf}
pair_coeff 13 26	0.000000040435354	${bac_size}	${diff_bac_cf}
pair_coeff 13 27	0.000000050602574	${bac_size}	${diff_bac_cf}
pair_coeff 13 28	0.000000049274316	${bac_size}	${diff_bac_cf}
pair_coeff 13 29	0.000000039790390	${bac_size}	${diff_bac_cf}
pair_coeff 13 30	0.000000052592596	${bac_size}	${diff_bac_cf}
pair_coeff 13 31	0.000000071365394	${bac_size}	${diff_bac_cf}
pair_coeff 13 32	0.000000076428624	${bac_size}	${diff_bac_cf}
pair_coeff 13 33	0.000000043640857	${bac_size}	${diff_bac_cf}
pair_coeff 13 34	0.000000075629909	${bac_size}	${diff_bac_cf}
pair_coeff 14 15	0.000000039301140	${bac_size}	${diff_bac_cf}
pair_coeff 14 16	0.000000043725564	${bac_size}	${diff_bac_cf}
pair_coeff 14 17	0.000000049570541	${bac_size}	${diff_bac_cf}
pair_coeff 14 18	0.000000040071751	${bac_size}	${diff_bac_cf}
pair_coeff 14 19	0.000000055145615	${bac_size}	${diff_bac_cf}
pair_coeff 14 20	0.000000036065542	${bac_size}	${diff_bac_cf}
pair_coeff 14 21	0.000000055146214	${bac_size}	${diff_bac_cf}
pair_coeff 14 22	0.000000067053540	${bac_size}	${diff_bac_cf}
pair_coeff 14 23	0.000000079986975	${bac_size}	${diff_bac_cf}
pair_coeff 14 24	0.000000041377629	${bac_size}	${diff_bac_cf}
pair_coeff 14 25	0.000000053070377	${bac_size}	${diff_bac_cf}
pair_coeff 14 26	0.000000055520848	${bac_size}	${diff_bac_cf}
pair_coeff 14 27	0.000000046789642	${bac_size}	${diff_bac_cf}
pair_coeff 14 28	0.000000047229117	${bac_size}	${diff_bac_cf}
pair_coeff 14 29	0.000000049882830	${bac_size}	${diff_bac_cf}
pair_coeff 14 30	0.000000066960690	${bac_size}	${diff_bac_cf}
pair_coeff 14 31	0.000000068825907	${bac_size}	${diff_bac_cf}
pair_coeff 14 32	0.000000047309412	${bac_size}	${diff_bac_cf}
pair_coeff 14 33	0.000000049293324	${bac_size}	${diff_bac_cf}
pair_coeff 14 34	0.000000074991181	${bac_size}	${diff_bac_cf}
pair_coeff 15 16	0.000000035664032	${bac_size}	${diff_bac_cf}
pair_coeff 15 17	0.000000043991324	${bac_size}	${diff_bac_cf}
pair_coeff 15 18	0.000000050346547	${bac_size}	${diff_bac_cf}
pair_coeff 15 19	0.000000038596823	${bac_size}	${diff_bac_cf}
pair_coeff 15 20	0.000000043754804	${bac_size}	${diff_bac_cf}
pair_coeff 15 21	0.000000032478120	${bac_size}	${diff_bac_cf}
pair_coeff 15 22	0.000000056186549	${bac_size}	${diff_bac_cf}
pair_coeff 15 23	0.000000049214123	${bac_size}	${diff_bac_cf}
pair_coeff 15 24	0.000000073123960	${bac_size}	${diff_bac_cf}
pair_coeff 15 25	0.000000053536941	${bac_size}	${diff_bac_cf}
pair_coeff 15 26	0.000000043968120	${bac_size}	${diff_bac_cf}
pair_coeff 15 27	0.000000038274357	${bac_size}	${diff_bac_cf}
pair_coeff 15 28	0.000000068311529	${bac_size}	${diff_bac_cf}
pair_coeff 15 29	0.000000037671694	${bac_size}	${diff_bac_cf}
pair_coeff 15 30	0.000000045947228	${bac_size}	${diff_bac_cf}
pair_coeff 15 31	0.000000055691054	${bac_size}	${diff_bac_cf}
pair_coeff 15 32	0.000000053623943	${bac_size}	${diff_bac_cf}
pair_coeff 15 33	0.000000035925482	${bac_size}	${diff_bac_cf}
pair_coeff 15 34	0.000000059984930	${bac_size}	${diff_bac_cf}
pair_coeff 16 17	0.000000054890773	${bac_size}	${diff_bac_cf}
pair_coeff 16 18	0.000000051154969	${bac_size}	${diff_bac_cf}
pair_coeff 16 19	0.000000050256650	${bac_size}	${diff_bac_cf}
pair_coeff 16 20	0.000000045048195	${bac_size}	${diff_bac_cf}
pair_coeff 16 21	0.000000049944679	${bac_size}	${diff_bac_cf}
pair_coeff 16 22	0.000000054238391	${bac_size}	${diff_bac_cf}
pair_coeff 16 23	0.000000045121737	${bac_size}	${diff_bac_cf}
pair_coeff 16 24	0.000000037670767	${bac_size}	${diff_bac_cf}
pair_coeff 16 25	0.000000059913318	${bac_size}	${diff_bac_cf}
pair_coeff 16 26	0.000000046905968	${bac_size}	${diff_bac_cf}
pair_coeff 16 27	0.000000063442770	${bac_size}	${diff_bac_cf}
pair_coeff 16 28	0.000000066949000	${bac_size}	${diff_bac_cf}
pair_coeff 16 29	0.000000040849534	${bac_size}	${diff_bac_cf}
pair_coeff 16 30	0.000000076912975	${bac_size}	${diff_bac_cf}
pair_coeff 16 31	0.000000054926902	${bac_size}	${diff_bac_cf}
pair_coeff 16 32	0.000000050153217	${bac_size}	${diff_bac_cf}
pair_coeff 16 33	0.000000039865851	${bac_size}	${diff_bac_cf}
pair_coeff 16 34	0.000000038949173	${bac_size}	${diff_bac_cf}
pair_coeff 17 18	0.000000061257045	${bac_size}	${diff_bac_cf}
pair_coeff 17 19	0.000000060208121	${bac_size}	${diff_bac_cf}
pair_coeff 17 20	0.000000039392917	${bac_size}	${diff_bac_cf}
pair_coeff 17 21	0.000000031601124	${bac_size}	${diff_bac_cf}
pair_coeff 17 22	0.000000076204379	${bac_size}	${diff_bac_cf}
pair_coeff 17 23	0.000000057648571	${bac_size}	${diff_bac_cf}
pair_coeff 17 24	0.000000053540667	${bac_size}	${diff_bac_cf}
pair_coeff 17 25	0.000000038064907	${bac_size}	${diff_bac_cf}
pair_coeff 17 26	0.000000040970832	${bac_size}	${diff_bac_cf}
pair_coeff 17 27	0.000000050971949	${bac_size}	${diff_bac_cf}
pair_coeff 17 28	0.000000045504466	${bac_size}	${diff_bac_cf}
pair_coeff 17 29	0.000000056458406	${bac_size}	${diff_bac_cf}
pair_coeff 17 30	0.000000059792639	${bac_size}	${diff_bac_cf}
pair_coeff 17 31	0.000000064930742	${bac_size}	${diff_bac_cf}
pair_coeff 17 32	0.000000050425010	${bac_size}	${diff_bac_cf}
pair_coeff 17 33	0.000000045447353	${bac_size}	${diff_bac_cf}
pair_coeff 17 34	0.000000057351527	${bac_size}	${diff_bac_cf}
pair_coeff 18 19	0.000000043161242	${bac_size}	${diff_bac_cf}
pair_coeff 18 20	0.000000055966612	${bac_size}	${diff_bac_cf}
pair_coeff 18 21	0.000000052529471	${bac_size}	${diff_bac_cf}
pair_coeff 18 22	0.000000037558955	${bac_size}	${diff_bac_cf}
pair_coeff 18 23	0.000000043918270	${bac_size}	${diff_bac_cf}
pair_coeff 18 24	0.000000063315164	${bac_size}	${diff_bac_cf}
pair_coeff 18 25	0.000000043459939	${bac_size}	${diff_bac_cf}
pair_coeff 18 26	0.000000049519373	${bac_size}	${diff_bac_cf}
pair_coeff 18 27	0.000000038435067	${bac_size}	${diff_bac_cf}
pair_coeff 18 28	0.000000042852785	${bac_size}	${diff_bac_cf}
pair_coeff 18 29	0.000000041980744	${bac_size}	${diff_bac_cf}
pair_coeff 18 30	0.000000053048706	${bac_size}	${diff_bac_cf}
pair_coeff 18 31	0.000000038477620	${bac_size}	${diff_bac_cf}
pair_coeff 18 32	0.000000065424628	${bac_size}	${diff_bac_cf}
pair_coeff 18 33	0.000000044272001	${bac_size}	${diff_bac_cf}
pair_coeff 18 34	0.000000058846061	${bac_size}	${diff_bac_cf}
pair_coeff 19 20	0.000000041022474	${bac_size}	${diff_bac_cf}
pair_coeff 19 21	0.000000046358600	${bac_size}	${diff_bac_cf}
pair_coeff 19 22	0.000000046944910	${bac_size}	${diff_bac_cf}
pair_coeff 19 23	0.000000049684755	${bac_size}	${diff_bac_cf}
pair_coeff 19 24	0.000000055885810	${bac_size}	${diff_bac_cf}
pair_coeff 19 25	0.000000029673350	${bac_size}	${diff_bac_cf}
pair_coeff 19 26	0.000000043905055	${bac_size}	${diff_bac_cf}
pair_coeff 19 27	0.000000047199593	${bac_size}	${diff_bac_cf}
pair_coeff 19 28	0.000000053446042	${bac_size}	${diff_bac_cf}
pair_coeff 19 29	0.000000053570332	${bac_size}	${diff_bac_cf}
pair_coeff 19 30	0.000000054052036	${bac_size}	${diff_bac_cf}
pair_coeff 19 31	0.000000065441856	${bac_size}	${diff_bac_cf}
pair_coeff 19 32	0.000000058260676	${bac_size}	${diff_bac_cf}
pair_coeff 19 33	0.000000043640153	${bac_size}	${diff_bac_cf}
pair_coeff 19 34	0.000000041259811	${bac_size}	${diff_bac_cf}
pair_coeff 20 21	0.000000061743997	${bac_size}	${diff_bac_cf}
pair_coeff 20 22	0.000000058717934	${bac_size}	${diff_bac_cf}
pair_coeff 20 23	0.000000061402920	${bac_size}	${diff_bac_cf}
pair_coeff 20 24	0.000000043013142	${bac_size}	${diff_bac_cf}
pair_coeff 20 25	0.000000046476940	${bac_size}	${diff_bac_cf}
pair_coeff 20 26	0.000000072796463	${bac_size}	${diff_bac_cf}
pair_coeff 20 27	0.000000053686497	${bac_size}	${diff_bac_cf}
pair_coeff 20 28	0.000000048377236	${bac_size}	${diff_bac_cf}
pair_coeff 20 29	0.000000054941341	${bac_size}	${diff_bac_cf}
pair_coeff 20 30	0.000000047262618	${bac_size}	${diff_bac_cf}
pair_coeff 20 31	0.000000077767797	${bac_size}	${diff_bac_cf}
pair_coeff 20 32	0.000000059618066	${bac_size}	${diff_bac_cf}
pair_coeff 20 33	0.000000043534270	${bac_size}	${diff_bac_cf}
pair_coeff 20 34	0.000000063980296	${bac_size}	${diff_bac_cf}
pair_coeff 21 22	0.000000059395562	${bac_size}	${diff_bac_cf}
pair_coeff 21 23	0.000000058958269	${bac_size}	${diff_bac_cf}
pair_coeff 21 24	0.000000055609483	${bac_size}	${diff_bac_cf}
pair_coeff 21 25	0.000000045169484	${bac_size}	${diff_bac_cf}
pair_coeff 21 26	0.000000044411702	${bac_size}	${diff_bac_cf}
pair_coeff 21 27	0.000000080350142	${bac_size}	${diff_bac_cf}
pair_coeff 21 28	0.000000042241868	${bac_size}	${diff_bac_cf}
pair_coeff 21 29	0.000000035195488	${bac_size}	${diff_bac_cf}
pair_coeff 21 30	0.000000048274427	${bac_size}	${diff_bac_cf}
pair_coeff 21 31	0.000000048288726	${bac_size}	${diff_bac_cf}
pair_coeff 21 32	0.000000043754593	${bac_size}	${diff_bac_cf}
pair_coeff 21 33	0.000000040638770	${bac_size}	${diff_bac_cf}
pair_coeff 21 34	0.000000063010164	${bac_size}	${diff_bac_cf}
pair_coeff 22 23	0.000000048379551	${bac_size}	${diff_bac_cf}
pair_coeff 22 24	0.000000037367318	${bac_size}	${diff_bac_cf}
pair_coeff 22 25	0.000000056754437	${bac_size}	${diff_bac_cf}
pair_coeff 22 26	0.000000050094934	${bac_size}	${diff_bac_cf}
pair_coeff 22 27	0.000000068452107	${bac_size}	${diff_bac_cf}